*Heading
 /private/tmp/BRACKET_GRIPPER.coarse.inp
*NODE
1, 26.5, -13, 5
2, 26.5, -13, 8
3, 18, -13, 5
4, 18, -13, 0
5, -2.5, -13, 0
6, -2.5, -13, 8
7, -5, -10.5, 0
8, -5, -10.5, 8
9, 29, -10.5, 5
10, 29, -10.5, 8
11, -5, 10.5, 8
12, -5, 10.5, 0
13, -2.5, 13, 0
14, -2.5, 13, 8
15, 1, -35.5, 5
16, -1.5, -33, 5
17, -1.5, -33, 8
18, 1, -35.5, 8
19, -1.5, 33, 5
20, 1, 35.5, 5
21, 1, 35.5, 8
22, -1.5, 33, 8
23, 11.65, 22, 0
24, 11.65, 22, 4
25, 8.35, 22, 0
26, 8.35, 22, 4
27, 8.35, -22, 0
28, 8.35, -22, 4
29, 11.65, -22, 0
30, 11.65, -22, 4
31, 13.5, 22, 4
32, 6.5, 22, 4
33, 13.5, -22, 4
34, 6.5, -22, 4
35, -1.5, -21, 5
36, 1, -23.5, 5
37, 1, -23.5, 0
38, -1.5, -21, 0
39, 1, 23.5, 5
40, -1.5, 21, 5
41, -1.5, 21, 0
42, 1, 23.5, 0
43, 7.65, 37, 5
44, 7.65, 37, 8
45, 4.35, 37, 8
46, 4.35, 37, 5
47, 31.65, 37, 5
48, 31.65, 37, 8
49, 28.35, 37, 8
50, 28.35, 37, 5
51, 31.65, -37, 5
52, 31.65, -37, 8
53, 28.35, -37, 8
54, 28.35, -37, 5
55, 7.65, -37, 5
56, 7.65, -37, 8
57, 4.35, -37, 8
58, 4.35, -37, 5
59, -11.85, 28.75, 5
60, -11.85, 28.75, 8
61, -15.15, 28.75, 8
62, -15.15, 28.75, 5
63, -11.85, -28.75, 5
64, -11.85, -28.75, 8
65, -15.15, -28.75, 8
66, -15.15, -28.75, 5
67, 13.5, 22, 8
68, 6.5, 22, 8
69, 13.5, -22, 8
70, 6.5, -22, 8
71, -8, -16.5, 0
72, -11, -16.5, 0
73, -11, -16.5, 8
74, -8, -16.5, 8
75, -8, 16.5, 0
76, -11, 16.5, 0
77, -11, 16.5, 8
78, -8, 16.5, 8
79, 26.5, 13, 5
80, 26.5, 13, 8
81, 18, 13, 0
82, 18, 13, 5
83, 29, 10.5, 5
84, 29, 10.5, 8
85, -15.5, -33, 5
86, -15.5, -33, 8
87, -17.5, -31, 5
88, -17.5, -31, 8
89, -15.5, 33, 5
90, -15.5, 33, 8
91, -17.5, 31, 8
92, -17.5, 31, 5
93, 17, -37, 5
94, 17, -37, 7.7
95, 19, -37, 5
96, 19, -37, 7.7
97, 16.7, -37, 8
98, 19.3, -37, 8
99, 17, 37, 5
100, 17, 37, 7.7
101, 19, 37, 5
102, 19, 37, 7.7
103, 16.7, 37, 8
104, 19.3, 37, 8
105, 18, -25, 0
106, 18, -25, 5
107, 16, -27, 5
108, 16, -27, 0
109, 1, -25, 5
110, 1, -25, 0
111, 3, -27, 0
112, 3, -27, 5
113, 1, 25, 0
114, 1, 25, 5
115, 3, 27, 5
116, 3, 27, 0
117, 18, 25, 5
118, 18, 25, 0
119, 16, 27, 0
120, 16, 27, 5
121, -15.5, 21, 5
122, -15.5, 21, 0
123, -17.5, 19, 5
124, -17.5, 19, 0
125, -15.5, -21, 0
126, -15.5, -21, 5
127, -17.5, -21, 5
128, -17.5, 21, 5
129, -17.5, -19, 0
130, -17.5, -19, 5
131, 1, -40, 8
132, 1, -40, 5
133, 3, -42, 5
134, 3, -42, 8
135, 33, -42, 8
136, 33, -42, 5
137, 35, -40, 8
138, 35, -40, 5
139, 1, 40, 5
140, 1, 40, 8
141, 3, 42, 5
142, 3, 42, 8
143, 35, 40, 8
144, 35, 40, 5
145, 33, 42, 5
146, 33, 42, 8
147, 20.833333333333, -13, 5
148, 23.666666666667, -13, 5
149, 18, -13, 2.5
150, 0.42857142857143, -13, 0
151, 3.3571428571429, -13, 0
152, 6.2857142857143, -13, 0
153, 9.2142857142857, -13, 0
154, 12.142857142857, -13, 0
155, 15.071428571429, -13, 0
156, -2.5, -13, 2.6666666666667
157, -2.5, -13, 5.3333333333333
158, 0.4, -13, 8
159, 3.3, -13, 8
160, 6.2, -13, 8
161, 9.1, -13, 8
162, 12, -13, 8
163, 14.9, -13, 8
164, 17.8, -13, 8
165, 20.7, -13, 8
166, 23.6, -13, 8
167, -4.2677669529664, -12.267766952966, 0
168, -4.2677669529664, -12.267766952966, 8
169, -5, -10.5, 2.6666666666667
170, -5, -10.5, 5.3333333333333
171, 28.267766952966, -12.267766952966, 5
172, 28.267766952966, -12.267766952966, 8
173, -5, -7.5, 8
174, -5, -4.5, 8
175, -5, -1.5, 8
176, -5, 1.5, 8
177, -5, 4.5, 8
178, -5, 7.5, 8
179, -5, -7.5, 0
180, -5, -4.5, 0
181, -5, -1.5, 0
182, -5, 1.5, 0
183, -5, 4.5, 0
184, -5, 7.5, 0
185, -5, 10.5, 2.6666666666667
186, -5, 10.5, 5.3333333333333
187, -4.2677669529664, 12.267766952966, 0
188, -4.2677669529664, 12.267766952966, 8
189, -2.5, 13, 2.6666666666667
190, -2.5, 13, 5.3333333333333
191, 0.26776695296637, -33.732233047034, 5
192, 0.26776695296637, -33.732233047034, 8
193, 0.26776695296637, 33.732233047034, 5
194, 0.26776695296637, 33.732233047034, 8
195, 11.65, 22, 2
196, 10.825, 23.428941916244, 0
197, 9.175, 23.428941916244, 0
198, 8.35, 22, 2
199, 10.825, 23.428941916244, 4
200, 9.175, 23.428941916244, 4
201, 9.175, 20.571058083756, 0
202, 10.825, 20.571058083756, 0
203, 9.175, 20.571058083756, 4
204, 10.825, 20.571058083756, 4
205, 8.35, -22, 2
206, 9.175, -23.428941916244, 0
207, 10.825, -23.428941916244, 0
208, 11.65, -22, 2
209, 9.175, -23.428941916244, 4
210, 10.825, -23.428941916244, 4
211, 10.825, -20.571058083756, 0
212, 9.175, -20.571058083756, 0
213, 10.825, -20.571058083756, 4
214, 9.175, -20.571058083756, 4
215, 12.474873734153, 24.474873734153, 4
216, 10, 25.5, 4
217, 7.5251262658471, 24.474873734153, 4
218, 7.5251262658471, 19.525126265847, 4
219, 10, 18.5, 4
220, 12.474873734153, 19.525126265847, 4
221, 12.474873734153, -19.525126265847, 4
222, 10, -18.5, 4
223, 7.5251262658471, -19.525126265847, 4
224, 7.5251262658471, -24.474873734153, 4
225, 10, -25.5, 4
226, 12.474873734153, -24.474873734153, 4
227, 0.26776695296637, -21.732233047034, 5
228, 1, -23.5, 2.5
229, 0.26776695296637, -21.732233047034, 0
230, -1.5, -21, 2.5
231, 0.26776695296637, 21.732233047034, 5
232, -1.5, 21, 2.5
233, 0.26776695296637, 21.732233047034, 0
234, 1, 23.5, 2.5
235, 5.175, 35.571058083756, 8
236, 6.825, 35.571058083756, 8
237, 5.175, 35.571058083756, 5
238, 6.825, 35.571058083756, 5
239, 6.825, 38.428941916244, 8
240, 5.175, 38.428941916244, 8
241, 6.825, 38.428941916244, 5
242, 5.175, 38.428941916244, 5
243, 29.175, 35.571058083756, 8
244, 30.825, 35.571058083756, 8
245, 29.175, 35.571058083756, 5
246, 30.825, 35.571058083756, 5
247, 30.825, 38.428941916244, 8
248, 29.175, 38.428941916244, 8
249, 30.825, 38.428941916244, 5
250, 29.175, 38.428941916244, 5
251, 29.175, -38.428941916244, 8
252, 30.825, -38.428941916244, 8
253, 29.175, -38.428941916244, 5
254, 30.825, -38.428941916244, 5
255, 30.825, -35.571058083756, 8
256, 29.175, -35.571058083756, 8
257, 30.825, -35.571058083756, 5
258, 29.175, -35.571058083756, 5
259, 5.175, -38.428941916244, 8
260, 6.825, -38.428941916244, 8
261, 5.175, -38.428941916244, 5
262, 6.825, -38.428941916244, 5
263, 6.825, -35.571058083756, 8
264, 5.175, -35.571058083756, 8
265, 6.825, -35.571058083756, 5
266, 5.175, -35.571058083756, 5
267, -14.325, 27.321058083756, 8
268, -12.675, 27.321058083756, 8
269, -14.325, 27.321058083756, 5
270, -12.675, 27.321058083756, 5
271, -12.675, 30.178941916244, 8
272, -14.325, 30.178941916244, 8
273, -12.675, 30.178941916244, 5
274, -14.325, 30.178941916244, 5
275, -14.325, -30.178941916244, 8
276, -12.675, -30.178941916244, 8
277, -14.325, -30.178941916244, 5
278, -12.675, -30.178941916244, 5
279, -12.675, -27.321058083756, 8
280, -14.325, -27.321058083756, 8
281, -12.675, -27.321058083756, 5
282, -14.325, -27.321058083756, 5
283, 13.5, 22, 6
284, 7.5251262658471, 19.525126265847, 8
285, 10, 18.5, 8
286, 12.474873734153, 19.525126265847, 8
287, 6.5, 22, 6
288, 12.474873734153, 24.474873734153, 8
289, 10, 25.5, 8
290, 7.5251262658471, 24.474873734153, 8
291, 13.5, -22, 6
292, 7.5251262658471, -24.474873734153, 8
293, 10, -25.5, 8
294, 12.474873734153, -24.474873734153, 8
295, 6.5, -22, 6
296, 12.474873734153, -19.525126265847, 8
297, 10, -18.5, 8
298, 7.5251262658471, -19.525126265847, 8
299, -8.75, -15.200961894323, 0
300, -10.25, -15.200961894323, 0
301, -11, -16.5, 2.6666666666667
302, -11, -16.5, 5.3333333333333
303, -8.75, -15.200961894323, 8
304, -10.25, -15.200961894323, 8
305, -8, -16.5, 2.6666666666667
306, -8, -16.5, 5.3333333333333
307, -10.25, -17.799038105677, 0
308, -8.75, -17.799038105677, 0
309, -10.25, -17.799038105677, 8
310, -8.75, -17.799038105677, 8
311, -8.75, 17.799038105677, 0
312, -10.25, 17.799038105677, 0
313, -11, 16.5, 2.6666666666667
314, -11, 16.5, 5.3333333333333
315, -8.75, 17.799038105677, 8
316, -10.25, 17.799038105677, 8
317, -8, 16.5, 2.6666666666667
318, -8, 16.5, 5.3333333333333
319, -10.25, 15.200961894323, 0
320, -8.75, 15.200961894323, 0
321, -10.25, 15.200961894323, 8
322, -8.75, 15.200961894323, 8
323, 23.6, 13, 8
324, 20.7, 13, 8
325, 17.8, 13, 8
326, 14.9, 13, 8
327, 12, 13, 8
328, 9.1, 13, 8
329, 6.2, 13, 8
330, 3.3, 13, 8
331, 0.39999999999998, 13, 8
332, 15.071428571429, 13, 0
333, 12.142857142857, 13, 0
334, 9.2142857142857, 13, 0
335, 6.2857142857143, 13, 0
336, 3.3571428571428, 13, 0
337, 0.42857142857142, 13, 0
338, 18, 13, 2.5
339, 23.666666666667, 13, 5
340, 20.833333333333, 13, 5
341, 28.267766952966, 12.267766952966, 5
342, 28.267766952966, 12.267766952966, 8
343, 29, 7.5, 8
344, 29, 4.5, 8
345, 29, 1.5, 8
346, 29, -1.5, 8
347, 29, -4.5, 8
348, 29, -7.5, 8
349, 29, 7.5, 5
350, 29, 4.5, 5
351, 29, 1.5, 5
352, 29, -1.5, 5
353, 29, -4.5, 5
354, 29, -7.5, 5
355, -4.3, -33, 5
356, -7.1, -33, 5
357, -9.9, -33, 5
358, -12.7, -33, 5
359, -4.3, -33, 8
360, -7.1, -33, 8
361, -9.9, -33, 8
362, -12.7, -33, 8
363, -12.7, 33, 8
364, -9.9, 33, 8
365, -7.1, 33, 8
366, -4.3, 33, 8
367, -12.7, 33, 5
368, -9.9, 33, 5
369, -7.1, 33, 5
370, -4.3, 33, 5
371, 17.5, -37.866025403784, 5
372, 18.5, -37.866025403784, 5
373, 17.5, -37.866025403784, 7.7
374, 18.5, -37.866025403784, 7.7
375, 18.5, -36.133974596216, 5
376, 17.5, -36.133974596216, 5
377, 18.5, -36.133974596216, 7.7
378, 17.5, -36.133974596216, 7.7
379, 18.65, -35.87416697508, 8
380, 17.35, -35.87416697508, 8
381, 17.35, -38.12583302492, 8
382, 18.65, -38.12583302492, 8
383, 17.5, 36.133974596216, 5
384, 18.5, 36.133974596216, 5
385, 17.5, 36.133974596216, 7.7
386, 18.5, 36.133974596216, 7.7
387, 18.5, 37.866025403784, 5
388, 17.5, 37.866025403784, 5
389, 18.5, 37.866025403784, 7.7
390, 17.5, 37.866025403784, 7.7
391, 18.65, 38.12583302492, 8
392, 17.35, 38.12583302492, 8
393, 17.35, 35.87416697508, 8
394, 18.65, 35.87416697508, 8
395, 18, -22, 0
396, 18, -19, 0
397, 18, -16, 0
398, 18, -22, 5
399, 18, -19, 5
400, 18, -16, 5
401, 18, -25, 2.5
402, 16, -27, 2.5
403, 1, -25, 2.5
404, 5.6, -27, 0
405, 8.2, -27, 0
406, 10.8, -27, 0
407, 13.4, -27, 0
408, 5.6, -27, 5
409, 8.2, -27, 5
410, 10.8, -27, 5
411, 13.4, -27, 5
412, 3, -27, 2.5
413, 1, 25, 2.5
414, 3, 27, 2.5
415, 18, 16, 5
416, 18, 19, 5
417, 18, 22, 5
418, 18, 16, 0
419, 18, 19, 0
420, 18, 22, 0
421, 18, 25, 2.5
422, 13.4, 27, 0
423, 10.8, 27, 0
424, 8.2, 27, 0
425, 5.6, 27, 0
426, 13.4, 27, 5
427, 10.8, 27, 5
428, 8.2, 27, 5
429, 5.6, 27, 5
430, 16, 27, 2.5
431, -4.3, 21, 5
432, -7.1, 21, 5
433, -9.9, 21, 5
434, -12.7, 21, 5
435, -4.3, 21, 0
436, -7.1, 21, 0
437, -9.9, 21, 0
438, -12.7, 21, 0
439, -15.5, 21, 2.5
440, -17.5, 19, 2.5
441, -15.5, -21, 2.5
442, -4.3, -21, 0
443, -7.1, -21, 0
444, -9.9, -21, 0
445, -12.7, -21, 0
446, -4.3, -21, 5
447, -7.1, -21, 5
448, -9.9, -21, 5
449, -12.7, -21, 5
450, -17.5, -23.5, 5
451, -17.5, -26, 5
452, -17.5, -28.5, 5
453, -17.5, 28.047619047619, 8
454, -17.5, 25.095238095238, 8
455, -17.5, 22.142857142857, 8
456, -17.5, 19.190476190476, 8
457, -17.5, 16.238095238095, 8
458, -17.5, 13.285714285714, 8
459, -17.5, 10.333333333333, 8
460, -17.5, 7.3809523809524, 8
461, -17.5, 4.4285714285714, 8
462, -17.5, 1.4761904761905, 8
463, -17.5, -1.4761904761904, 8
464, -17.5, -4.4285714285714, 8
465, -17.5, -7.3809523809523, 8
466, -17.5, -10.333333333333, 8
467, -17.5, -13.285714285714, 8
468, -17.5, -16.238095238095, 8
469, -17.5, -19.190476190476, 8
470, -17.5, -22.142857142857, 8
471, -17.5, -25.095238095238, 8
472, -17.5, -28.047619047619, 8
473, -17.5, 28.5, 5
474, -17.5, 26, 5
475, -17.5, 23.5, 5
476, -17.5, 16.076923076923, 0
477, -17.5, 13.153846153846, 0
478, -17.5, 10.230769230769, 0
479, -17.5, 7.3076923076923, 0
480, -17.5, 4.3846153846154, 0
481, -17.5, 1.4615384615384, 0
482, -17.5, -1.4615384615385, 0
483, -17.5, -4.3846153846154, 0
484, -17.5, -7.3076923076924, 0
485, -17.5, -10.230769230769, 0
486, -17.5, -13.153846153846, 0
487, -17.5, -16.076923076923, 0
488, -17.5, -19, 2.5
489, 1, -37.75, 8
490, 1, -37.75, 5
491, 6, -42, 8
492, 9, -42, 8
493, 12, -42, 8
494, 15, -42, 8
495, 18, -42, 8
496, 21, -42, 8
497, 24, -42, 8
498, 27, -42, 8
499, 30, -42, 8
500, 6, -42, 5
501, 9, -42, 5
502, 12, -42, 5
503, 15, -42, 5
504, 18, -42, 5
505, 21, -42, 5
506, 24, -42, 5
507, 27, -42, 5
508, 30, -42, 5
509, 1, 37.75, 5
510, 1, 37.75, 8
511, 35, -37.037037037037, 8
512, 35, -34.074074074074, 8
513, 35, -31.111111111111, 8
514, 35, -28.148148148148, 8
515, 35, -25.185185185185, 8
516, 35, -22.222222222222, 8
517, 35, -19.259259259259, 8
518, 35, -16.296296296296, 8
519, 35, -13.333333333333, 8
520, 35, -10.37037037037, 8
521, 35, -7.4074074074075, 8
522, 35, -4.4444444444445, 8
523, 35, -1.4814814814816, 8
524, 35, 1.4814814814814, 8
525, 35, 4.4444444444443, 8
526, 35, 7.4074074074073, 8
527, 35, 10.37037037037, 8
528, 35, 13.333333333333, 8
529, 35, 16.296296296296, 8
530, 35, 19.259259259259, 8
531, 35, 22.222222222222, 8
532, 35, 25.185185185185, 8
533, 35, 28.148148148148, 8
534, 35, 31.111111111111, 8
535, 35, 34.074074074074, 8
536, 35, 37.037037037037, 8
537, 35, -37.037037037037, 5
538, 35, -34.074074074074, 5
539, 35, -31.111111111111, 5
540, 35, -28.148148148148, 5
541, 35, -25.185185185185, 5
542, 35, -22.222222222222, 5
543, 35, -19.259259259259, 5
544, 35, -16.296296296296, 5
545, 35, -13.333333333333, 5
546, 35, -10.37037037037, 5
547, 35, -7.4074074074075, 5
548, 35, -4.4444444444445, 5
549, 35, -1.4814814814816, 5
550, 35, 1.4814814814814, 5
551, 35, 4.4444444444443, 5
552, 35, 7.4074074074073, 5
553, 35, 10.37037037037, 5
554, 35, 13.333333333333, 5
555, 35, 16.296296296296, 5
556, 35, 19.259259259259, 5
557, 35, 22.222222222222, 5
558, 35, 25.185185185185, 5
559, 35, 28.148148148148, 5
560, 35, 31.111111111111, 5
561, 35, 34.074074074074, 5
562, 35, 37.037037037037, 5
563, 6, 42, 5
564, 9, 42, 5
565, 12, 42, 5
566, 15, 42, 5
567, 18, 42, 5
568, 21, 42, 5
569, 24, 42, 5
570, 27, 42, 5
571, 30, 42, 5
572, 6, 42, 8
573, 9, 42, 8
574, 12, 42, 8
575, 15, 42, 8
576, 18, 42, 8
577, 21, 42, 8
578, 24, 42, 8
579, 27, 42, 8
580, 30, 42, 8
581, 34, 41, 8
582, -0.1905989232415, -13, 4
583, 4.75, -13, 5.4885263290251
584, 10.50861885086, -13, 5.3992978088486
585, 15.827745888515, -13, 3.8612463900202
586, 7.75, -13, 2.5362172539401
587, 10.678571428571, -13, 2.5362172539401
588, 4.9514175907794, -13, 2.5664898587353
589, 13.510592837694, -13, 5.4120812401899
590, 7.5354659708472, -13, 5.4477175200392
591, 13.636786536785, -13, 2.5028555674966
592, 2.0845967384846, -13, 2.5281792565154
593, 1.6369880207039, -13, 5.6848746735319
594, 16.007667745242, -13, 6.054665526042
595, -0.52206969101983, -13, 6.0925424556507
596, -0.51852501269045, -13, 1.9013179813863
597, 16.107192199346, -13, 1.7728203915034
598, 19.416666666667, -13, 6.44
599, 24.932354574483, -13, 6.498399586592
600, 22.191503540192, -13, 6.489733264432
601, 12.083642413478, -13, 3.9626129676188
602, -4.2852129412922, -12.250147066461, 4
603, -4.2540331997848, -12.281394828232, 1.9026935007365
604, -4.2540331997848, -12.281394828232, 6.0973064992635
605, 27.889959613472, -12.577982741246, 6.4921742324393
606, 28.644004890181, -11.785784986255, 6.493250649289
607, -5, -8.1905989232415, 4
608, -5, 8.1905989232415, 4
609, -5, -3, 5.4019237886467
610, -5, 3, 5.4019237886467
611, -5, 0, 2.5980762113533
612, -5, 0, 5.7737883255784
613, -5, -2.9630396451093, 2.0978195525532
614, -5, 2.9630396451093, 2.0978195525532
615, -5, -6.2525180023429, 5.6676104902513
616, -5, 6.2525180023429, 5.6676104902513
617, -5, 5.8151982255466, 2.4890977627661
618, -5, -5.8151982255466, 2.4890977627661
619, -5, -8.5093108652696, 1.885358609905
620, -5, 8.5093108652696, 1.885358609905
621, -5, -8.5093108652696, 6.114641390095
622, -5, 8.5093108652696, 6.114641390095
623, -4.2852129412922, 12.250147066461, 4
624, -4.2540331997847, 12.281394828232, 1.9026935007365
625, -4.2540331997847, 12.281394828232, 6.0973064992635
626, -0.11004038652777, -33.422017258754, 6.4921742324393
627, 0.64400489018105, -34.214215013745, 6.493250649289
628, 0.5788947657108, 34.111404827496, 6.5047880162698
629, -0.21288892237204, 33.356790940238, 6.5012000284044
630, 9.9949880106054, 23.64999238785, 1.5009245804901
631, 9.9932913928118, 23.64998636194, 2.9257332223519
632, 8.7372183190604, 23.062018091316, 1.265215286624
633, 11.256331125141, 23.069641109907, 1.2621529365578
634, 8.9049708195165, 23.234265406584, 2.6186292679932
635, 11.095760988562, 23.233615765117, 2.6159811007491
636, 10.005011989389, 20.35000761215, 1.5009245804897
637, 10.006708607185, 20.35001363806, 2.9257332223512
638, 11.262781680938, 20.937981908682, 1.2652152866242
639, 8.7436688748593, 20.930358890093, 1.262152936557
640, 11.095029180484, 20.765734593417, 2.6186292679923
641, 8.9042390114364, 20.766384234884, 2.6159811007489
642, 10.005011989389, -23.64999238785, 1.5009245804897
643, 10.006708607185, -23.64998636194, 2.9257332223512
644, 11.262781680938, -23.062018091318, 1.2652152866242
645, 8.7436688748593, -23.069641109907, 1.262152936557
646, 11.095029180484, -23.234265406583, 2.6186292679923
647, 8.9042390114364, -23.233615765116, 2.6159811007489
648, 10.0050119894, -20.35000761215, 2.4990754195093
649, 10.00670860719, -20.35001363806, 1.0742667776476
650, 8.7436688748592, -20.930358890093, 2.7378470634412
651, 11.262781680941, -20.937981908685, 2.7347847133761
652, 8.9042390114389, -20.766384234882, 1.3840188992508
653, 11.095029180483, -20.765734593416, 1.3813707320061
654, 12.112468433538, 22.975953912599, 4
655, 7.8875315664618, 21.024046087401, 4
656, 12.112468433538, 21.024046087401, 4
657, 7.8875315664618, 22.975953912599, 4
658, 12.112468433538, -21.024046087401, 4
659, 7.8875315664618, -22.975953912599, 4
660, 7.8875315664618, -21.024046087401, 4
661, 12.112468433538, -22.975953912599, 4
662, 0.69376744539098, -22.301090330532, 1.3079103471871
663, 0.25053291266427, -21.715165407754, 3.0124632273848
664, -0.19130464939032, -21.369902237151, 1.4392922171211
665, -0.30109033053247, 21.306232554609, 1.3079103471871
666, 0.28483459224634, 21.749467087336, 3.0124632273848
667, 0.6300977628486, 22.19130464939, 1.4392922171211
668, 4.8551617626515, 35.811788987467, 6.4823877477947
669, 7.1304456878786, 35.798087962138, 6.4915040677825
670, 5.9986609873104, 35.35000054332, 6.489236534411
671, 6, 38.65, 6.5070906819754
672, 7.1369639146253, 38.195747906893, 6.5019472703643
673, 4.8630360853747, 38.195747906893, 6.5019472703643
674, 28.855161762651, 35.811788987467, 6.5176122522053
675, 31.130445687879, 35.798087962138, 6.5084959322175
676, 29.99866098731, 35.35000054332, 6.510763465589
677, 31.144838237348, 38.188211012533, 6.5176122522053
678, 28.869554312121, 38.201912037861, 6.5084959322174
679, 30.00133901269, 38.64999945668, 6.510763465589
680, 28.869554312121, -38.201912037861, 6.5084959322175
681, 31.145599391819, -38.187477171765, 6.508487216746
682, 30.011857533337, -38.649957393057, 6.5246250607606
683, 31.144838237348, -35.811788987467, 6.5176122522053
684, 28.869554312121, -35.798087962139, 6.5084959322174
685, 30.00133901269, -35.35000054332, 6.510763465589
686, 6, -38.65, 6.4929093180246
687, 4.8630360853747, -38.195747906893, 6.4980527296357
688, 7.1369639146253, -38.195747906893, 6.4980527296357
689, 6, -35.35, 6.4929093180246
690, 7.1369639146253, -35.804252093107, 6.4980527296357
691, 4.8630360853747, -35.804252093107, 6.4980527296357
692, -14.644838237349, 27.561788987467, 6.5176122522053
693, -12.369554312121, 27.548087962138, 6.5084959322175
694, -13.50133901269, 27.10000054332, 6.510763465589
695, -12.369554312121, 29.951912037861, 6.5084959322175
696, -14.643970879077, 29.939046099957, 6.5266473288714
697, -13.501197032362, 30.399999565792, 6.5127098094816
698, -14.630445687879, -29.951912037862, 6.5084959322176
699, -12.356029120923, -29.939046099957, 6.5266473288715
700, -13.498802967638, -30.399999565792, 6.5127098094817
701, -12.369554312121, -27.548087962139, 6.4915040677825
702, -14.643970879077, -27.560953900043, 6.4733526711286
703, -13.501197032362, -27.100000434208, 6.4872901905184
704, 8.6606079867222, 18.76642163621, 6.0178245507121
705, 11.339392013278, 18.766421636211, 5.9821754492879
706, 7.0739832593934, 20.079472459534, 5.9333362481728
707, 12.926016740588, 20.079472459506, 6.0666637518172
708, 8.6606079867222, 25.23357836379, 5.9821754492879
709, 11.339392013278, 25.23357836379, 6.0178245507121
710, 12.926016740602, 23.920527540474, 5.9333362481756
711, 7.0739832594044, 23.920527540483, 6.0666637518211
712, 8.6606079867222, -25.23357836379, 6.0178245507121
713, 11.339392013278, -25.233578363789, 5.9821754492879
714, 7.0739832593934, -23.920527540466, 5.9333362481728
715, 12.926016740588, -23.920527540494, 6.0666637518172
716, 8.6606079867222, -18.76642163621, 5.9821754492879
717, 11.339392013278, -18.76642163621, 6.0178245507121
718, 12.926016740602, -20.079472459526, 5.9333362481756
719, 7.0739832594044, -20.079472459517, 6.0666637518211
720, -9.5484304004061, -15.000782038423, 1.8970132278012
721, -9.5484304004061, -15.000782038423, 6.1029867721988
722, -9.4775642500169, -15.000167797011, 4
723, -9.4515695995942, -17.999217961577, 1.8970132278012
724, -9.4515695995942, -17.999217961577, 6.1029867721989
725, -9.5224357499829, -17.999832202989, 4
726, -9.5, 18, 1.8959511163562
727, -9.5, 18, 6.1040488836438
728, -9.5, 18, 4
729, -9.4515695995942, 15.000782038423, 1.8970132278012
730, -9.4515695995942, 15.000782038423, 6.1029867721989
731, -9.5224357499829, 15.000167797011, 4
732, -0.1905989232415, 13, 4
733, 4.75, 13, 5.4885263290251
734, 10.508303341696, 13, 5.3993059329261
735, 15.827361993394, 13, 3.8616243556859
736, 7.75, 13, 2.5362172539401
737, 4.9487982675019, 13, 2.5678457433793
738, 10.675174709035, 13, 2.5342561570014
739, 13.509767278968, 13, 5.412574449054
740, 7.5353386440197, 13, 5.4477766971495
741, 13.635401697658, 13, 2.5030112304568
742, 2.0826784758373, 13, 2.5266146939921
743, 1.6366683102626, 13, 5.6846139131113
744, 16.007425854472, 13, 6.054839760948
745, -0.52206969101982, 13, 6.0925424556507
746, -0.51852501269044, 13, 1.9013179813863
747, 16.106838452496, 13, 1.7729271172285
748, 19.416666666667, 13, 6.44
749, 24.932354574483, 13, 6.498399586592
750, 22.191503540192, 13, 6.489733264432
751, 12.082161756839, 13, 3.9622869423596
752, 28.578053754328, 11.889853443398, 6.4982488542595
753, 27.785769156538, 12.644014383369, 6.5043492485721
754, 29, 3, 6.5
755, 29, -9, 6.5
756, 29, 9, 6.5
757, 29, 6, 6.5
758, 29, 0, 6.5
759, 29, -6, 6.5
760, 29, -3, 6.5
761, -13.954227405248, -33, 6.5
762, -5.7, -33, 6.5
763, -8.5, -33, 6.5
764, -11.3, -33, 6.5
765, -3.0457725947522, -33, 6.5
766, -16.5, -32, 6.5
767, -3.0457725947522, 33, 6.5
768, -11.3, 33, 6.5
769, -8.5, 33, 6.5
770, -5.7, 33, 6.5
771, -13.954227405248, 33, 6.5
772, -16.5, 32, 6.5
773, 18, -38, 5.8555996771676
774, 18, -38, 7.0334531115743
775, 18, -36, 5.8555996771676
776, 18, -36, 7.0334531115743
777, 18, 36, 6.8444003228324
778, 18, 36, 5.6665468884257
779, 18, 38, 6.8444003228324
780, 18, 38, 5.6665468884257
781, 18, -20.375, 2.5583333333333
782, 18, -17.604166666667, 2.5680555555556
783, 18, -22.75, 2.85
784, 18, -15.25, 2.85
785, 18, -14.334215257532, 1.281887755102
786, 17, -26, 3.5677842565598
787, 17, -26, 1.4189347125772
788, 1, -24.25, 3.75
789, 1, -24.25, 1.25
790, 6.7052749903654, -27, 2.3764039052428
791, 12.294725009635, -27, 2.3764039052428
792, 9.5, -27, 2.5287026537149
793, 4.8201789043024, -27, 3.1015715120636
794, 14.179821095698, -27, 3.1015715120636
795, 4.5322076992383, -27, 1.4968536310438
796, 14.467792300762, -27, 1.4968536310438
797, 2, -26, 3.5677842565598
798, 2, -26, 1.4189347125772
799, 1, 24.25, 3.75
800, 1, 24.25, 1.25
801, 2, 26, 3.5677842565598
802, 2, 26, 1.4189347125772
803, 18, 17.625, 2.5583333333333
804, 18, 20.395833333333, 2.5680555555556
805, 18, 15.25, 2.85
806, 18, 22.75, 2.85
807, 18, 23.665784742468, 1.281887755102
808, 12.296801764726, 27, 2.3773862391469
809, 6.7623941038978, 27, 2.6895954630303
810, 9.509865978104, 27, 2.5111636170295
811, 14.179972462687, 27, 3.1016431107447
812, 4.8721571908782, 27, 1.9221314416004
813, 4.5477930421109, 27, 3.5159609863758
814, 14.468110603916, 27, 1.4970041928417
815, 17, 26, 3.5677842565598
816, 17, 26, 1.4189347125772
817, -8.5, 21, 2.5243935619401
818, -5.8180481313064, 21, 2.5801850199268
819, -11.602438860442, 21, 2.3900718738504
820, -13.744382875583, 21, 3.1503272834109
821, -3.6082887878387, 21, 2.9567165576207
822, -14.010546206723, 21, 1.3804955653981
823, -16.5, 20, 3.5677842565598
824, -16.5, 20, 1.4189347125772
825, -8.5, -21, 2.5243935619401
826, -5.8180481313064, -21, 2.5801850199268
827, -11.602438860442, -21, 2.3900718738504
828, -13.744382875583, -21, 3.1503272834109
829, -3.6082887878387, -21, 2.9567165576207
830, -14.010546206723, -21, 1.3804955653981
831, -17.5, -16.905295397951, 3.8611640284554
832, -17.5, 16.905295397951, 3.8611640284554
833, -17.5, -2.8421709430404e-14, 2.1031714252113
834, -17.5, -5.8461538461539, 2.5314588726007
835, -17.5, 5.8461538461538, 2.5314588726007
836, -17.5, -11.573334408578, 2.5636139729315
837, -17.5, 11.573334408578, 2.5636139729315
838, -17.5, -2.9523809523809, 5.4431630935888
839, -17.5, 2.952380952381, 5.4431630935888
840, -17.5, -8.8571428571428, 5.4431630935888
841, -17.5, 8.8571428571428, 5.4431630935888
842, -17.5, -14.974560661724, 5.6280351391099
843, -17.5, 14.974560661724, 5.6280351391099
844, -17.5, -11.877979890321, 5.482794752373
845, -17.5, 11.877979890321, 5.482794752373
846, -17.5, -14.522590651883, 2.4778842527936
847, -17.5, 14.522590651883, 2.4778842527936
848, -17.5, -8.7692307692308, 2.5260733374352
849, -17.5, 8.7692307692308, 2.5260733374352
850, -17.5, -5.9047619047618, 5.4646584894769
851, -17.5, 5.9047619047619, 5.4646584894769
852, -17.5, -2.923076923077, 2.5254422880849
853, -17.5, 2.9230769230769, 2.5254422880849
854, -17.5, 0, 5.0349291151267
855, -17.5, -17.718071248041, 6.1552923278772
856, -17.5, 17.718071248041, 6.1552923278772
857, -17.5, -20.216900763562, 6.3994648210861
858, -17.5, 20.216900763562, 6.3994648210861
859, -17.5, -17.100961825351, 1.7678096562498
860, -17.5, 17.100961825351, 1.7678096562498
861, -17.5, 29.75, 6.5
862, -17.5, -29.75, 6.5
863, -17.5, 22.301384548226, 6.3283757406139
864, -17.5, -22.301384548226, 6.3283757406139
865, 7.5152073482335, -20.552424821305, 0
866, 7.5152073482335, 20.552424821305, 0
867, -7.1259363800294, -8.897368784086, 0
868, -7.1259363800294, 8.897368784086, 0
869, 6.6709860226429, 22.016751227637, 0
870, 5.8722515606898, 20.562454273753, 0
871, 6.6709860226429, -22.016751227637, 0
872, 5.8671760622993, -20.559388094409, 0
873, -14.968541127399, -4.1309756512999e-14, 0
874, -15.142988548235, -5.3452944396356, 0
875, -15.139253110813, 5.3450427058928, 0
876, 0.025296805110206, 19.818201433868, 0
877, 0.086075344926219, -19.870409997644, 0
878, -3.8850498647079, 14.136995975121, 0
879, -3.8846041824824, -14.135851810668, 0
880, -11.78566771264, -15.181415786381, 0
881, -10.981339205377, -13.677758844137, 0
882, -11.78566771264, 15.181415786381, 0
883, -10.981339205377, 13.677858834093, 0
884, -1.7586203297295, -18.805410352499, 0
885, -1.9764396746195, 14.763975027984, 0
886, 9.9504935542123, -19.04328399833, 0
887, 11.82714613697, -19.036383995942, 0
888, 9.9504935542123, 19.04328399833, 0
889, 11.82670131408, 19.036640814557, 0
890, -7.6015436197919, -3.0299301111026, 0
891, -7.6113966076109, 3.0983272818947, 0
892, 6.70081231804, 19.031226478466, 0
893, 4.9872737837461, 19.081158186849, 0
894, 6.70081231804, -19.031226478466, 0
895, 4.982851883824, -19.096270271779, 0
896, 4.9742342392924, 21.990663753094, 0
897, 5.000779326774, -21.964185584224, 0
898, -6.0160374185641, 12.084707634252, 0
899, -6.0160374185641, -12.084707634252, 0
900, -12.875702890938, -16.780395670907, 0
901, -12.875702890938, 16.780395670907, 0
902, 2.2669756781831, 24.033327233333, 0
903, 2.2669893477916, -24.033323749015, 0
904, -2.0311549091156, -14.743316660362, 0
905, -3.7526752136791, -16.0241172381, 0
906, -1.7666393318109, 18.799601947426, 0
907, -3.7553899101558, 16.030855574246, 0
908, -0.13141884007578, -17.706896539935, 0
909, -0.15949566143384, 17.747695111846, 0
910, 14.570941998178, 24.899584605331, 0
911, 14.570941998178, -24.899584605331, 0
912, -7.1764699803741, 15.195514347494, 0
913, -7.1760228936742, -15.195755271729, 0
914, -12.797855451514, -13.739073914475, 0
915, -12.06396280842, -11.854608816533, 0
916, -12.797855451514, 13.739073914475, 0
917, -12.06396280842, 11.854625481526, 0
918, 2.0831274823299, 22.447678613505, 0
919, 2.1023281652743, -22.520482375557, 0
920, -6.9228584859003, 17.657008997008, 0
921, -6.9188410258594, -17.656563021452, 0
922, 10.839016526914, -17.319872902686, 0
923, 12.9731843572, -17.322689217214, 0
924, 10.838598852305, 17.314636416148, 0
925, 12.973078610486, 17.321915367138, 0
926, -9.8541665744617, -12.043409391423, 0
927, -10.806167859158, -10.003866747288, 0
928, -9.8541665744617, 12.043470326345, 0
929, -10.806167859158, 10.003879680607, 0
930, -13.079257480728, 9.8693586855621, 0
931, -13.079257480728, -9.8693586855621, 0
932, 6.0723298378038, 17.242904765761, 0
933, 3.5054128674184, 17.407837929065, 0
934, 6.0715913940307, -17.245476557079, 0
935, 3.6233284272351, -17.363454670228, 0
936, 5.7321550347715, -23.492846664771, 0
937, 5.7278455398483, 23.497273589809, 0
938, 13.916463537612, -19.499811105443, 0
939, 13.698513429352, 19.485992673252, 0
940, -11.857897943118, 7.7858563932891, 0
941, -11.857951386161, -7.7859466733469, 0
942, -7.9413322905645, -14.040467601356, 0
943, -7.9414217079045, 14.040539404457, 0
944, 8.4378669707572, -17.533957659819, 0
945, 8.4376219348072, 17.528539658601, 0
946, 1.830689144615, -20.705080505882, 0
947, 1.7678778379075, 20.619198925987, 0
948, 12.475, 23.428941916244, 0
949, 13.339792040677, 21.736589501903, 0
950, 12.475, -23.428941916244, 0
951, 13.358883612991, -21.652667687385, 0
952, -14.81321112774, -18.344545525226, 0
953, -14.81321112774, 18.344545525226, 0
954, 3.7087693063293, -23.500981985375, 0
955, 3.7087693063293, 23.500981985375, 0
956, -14.663811671125, -16.023262934776, 0
957, -14.663811671125, 16.023262934776, 0
958, 1.7172205397807, -18.652904080615, 0
959, -5.4229386923221, -15.153682615371, 0
960, -5.1891194742547, -17.083312905291, 0
961, -5.4248568240364, 15.154772480948, 0
962, -5.1962158075294, 17.084872583954, 0
963, 7.4139784087841, 15.247217353027, 0
964, 7.4142340504964, -15.25362171739, 0
965, -7.3543742869321, -6.1157879452437, 0
966, -10.255201083958, -5.1162094171976, 0
967, -10.263875642888, -1.742892590621, 0
968, -12.695966465304, -3.3813561914711, 0
969, -7.3560164515686, 6.127187473709, 0
970, -10.254734174779, 5.1273802767323, 0
971, -10.263875642888, 1.742892590621, 0
972, -12.681577049901, 3.3804004026808, 0
973, -3.5193578993714, 17.865310405226, 0
974, -3.5095895679049, -17.857407184819, 0
975, 15.415707217591, 17.479880039028, 0
976, 15.584622121359, -17.313979352557, 0
977, -7.6234485855298, 0.011399528465361, 0
978, -6.3444151832243, 13.814185754481, 0
979, -6.3444151832243, -13.814185754481, 0
980, 7.4921909930909, 23.472189482924, 0
981, 7.4928519063733, -23.471471748425, 0
982, 9.8811625253144, 25.178451173507, 0
983, 9.881162517879, -25.1784511778, 0
984, -1.9206875720679, 16.791731820657, 0
985, 0.033415114488189, 15.710825453783, 0
986, -2.0026380108509, -16.742643802808, 0
987, -0.16546309962138, -15.585344976772, 0
988, 3.3806317013567, 21.363806731942, 0
989, -14.710801416094, -11.567785477027, 0
990, -14.710801416094, 11.56778785774, 0
991, 4.8925828444515, -15.155206197818, 0
992, 4.7993001982178, 15.21597805906, 0
993, 6.6964676346184, 25.14022720506, 0
994, 5.0070696624561, 24.919420147433, 0
995, 6.6972940596345, -25.139303808318, 0
996, 5.0081105160524, -24.918346598759, 0
997, 1.5742104921777, -16.846133450327, 0
998, -12.626127670737, 18.60345551115, 0
999, -12.626127670737, -18.60345551115, 0
1000, 9.6766545026894, -15.525999365407, 0
1001, 9.6746184818758, 15.495881634741, 0
1002, 3.41386121038, -21.540446795327, 0
1003, 8.3558760382486, -19.346390208335, 0
1004, 8.3558270310586, 19.345306608091, 0
1005, -9.5, 13.901923788647, 0
1006, -9.5, -13.901323848905, 0
1007, -7.9402291451805, -12.424478881706, 0
1008, -7.9402419190862, 12.424583549958, 0
1009, -5.4933434808077, 19.037303123189, 0
1010, -5.4909157280163, -19.035183283004, 0
1011, 11.936975151886, 25.354939376066, 0
1012, 11.936975151886, -25.354939376066, 0
1013, -14.638479233611, 8.254261015142, 0
1014, -14.639066310572, -8.2543887646783, 0
1015, 11.95666531838, -15.709626663237, 0
1016, 11.956153315764, 15.702408516674, 0
1017, -12.174767185676, -0.00019115775807501, 0
1018, 1.6402737781627, 18.677440862262, 0
1019, 12.268001356822, 20.566056214693, 0
1020, 15.614986227262, 21.057080732064, 0
1021, 12.315498657515, -20.551984174505, 0
1022, 15.613358546977, -21.121554739835, 0
1023, -15.557874257623, 2.9143193909455, 0
1024, 8.2889642306047, 24.843961955547, 0
1025, 8.2892616967774, -24.843633730157, 0
1026, 14.151614062237, -15.379571830875, 0
1027, 14.151613491297, 15.379609165342, 0
1028, -15.561499228188, -2.9145608954521, 0
1029, 2.3428675390712, 15.181518184678, 0
1030, 3.3199254122674, -19.798444180555, 0
1031, -9.330230843843, -8.0836778698828, 0
1032, -9.330230843843, 8.0836778698828, 0
1033, -9.5964403604879, -18.968337573365, 0
1034, -9.5964403604879, 18.968337573365, 0
1035, -6.5382442328966, -16.364888301265, 0
1036, -6.540947841236, 16.364846901778, 0
1037, 3.3109283230667, 19.686308415567, 0
1038, -8.8182388302165, 10.43111909051, 0
1039, -8.8182388302165, -10.43111909051, 0
1040, -14.853482259476, 13.725690245758, 0
1041, -14.853482259476, -13.725690245758, 0
1042, -7.9593661857273, -19.24318699725, 0
1043, -7.960440387866, 19.243614633207, 0
1044, 16.133049973699, 23.181426102785, 0
1045, 16.132965233992, -23.18478272543, 0
1046, 1.4493883759317, 16.899446322302, 0
1047, -11.08220180244, 19.14553544412, 0
1048, -11.08220180244, -19.14553544412, 0
1049, -12.800636326321, 5.8290690238746, 0
1050, -12.802755861185, -5.8283462522614, 0
1051, -11.566806472823, 17.765684946371, 0
1052, -11.566806472823, -17.765684946371, 0
1053, -13.27666207747, -15.188760155069, 0
1054, -13.27666207747, 15.188760155069, 0
1055, 4.5169187791089, -20.591746985259, 0
1056, -3.3118251251302, -19.539600164064, 0
1057, -6.9800883547981, -10.867534878111, 0
1058, -6.9800909095792, 10.867555811761, 0
1059, -3.315868142398, 19.540443095168, 0
1060, 2.4400116655387, -15.090845244876, 0
1061, 4.5050639216303, 20.536878272241, 0
1062, 3.3939846667902, -25.303963525945, 0
1063, 3.3938396003013, 25.304096721755, 0
1064, 16.217549049594, -14.810589873355, 0
1065, 16.171729747721, 14.892893162952, 0
1066, -5.0833401268573, -13.340103179818, 0
1067, -5.0833401268573, 13.340103179819, 0
1068, 14.430229878428, -22.857506334845, 0
1069, 14.426754047963, 22.860724571665, 0
1070, 15.833543842871, -19.185193441014, 0
1071, -16.5, -20, 3.5677842565598
1072, -16.5, -20, 1.4189347125772
1073, 1, -36.946428571429, 6.5
1074, 1, -38.489285714286, 6.5
1075, 2, -41, 6.5
1076, 4.5, -42, 6.5
1077, 31.5, -42, 6.5
1078, 7.5, -42, 6.5
1079, 10.5, -42, 6.5
1080, 13.5, -42, 6.5
1081, 16.5, -42, 6.5
1082, 19.5, -42, 6.5
1083, 22.5, -42, 6.5
1084, 25.5, -42, 6.5
1085, 28.5, -42, 6.5
1086, 34, -41, 6.5
1087, 1, 36.946428571429, 6.5
1088, 1, 38.489285714286, 6.5
1089, 2, 41, 6.5
1090, 35, -17.777777777778, 6.5
1091, 35, -2.962962962963, 6.5
1092, 35, 8.8888888888888, 6.5
1093, 35, -8.8888888888889, 6.5
1094, 35, -5.925925925926, 6.5
1095, 35, -8.5265128291212e-14, 6.5
1096, 35, 2.9629629629629, 6.5
1097, 35, 5.9259259259258, 6.5
1098, 35, -14.814814814815, 6.5
1099, 35, -11.851851851852, 6.5
1100, 35, -38.518518518519, 6.5
1101, 35, -26.666666666667, 6.5
1102, 35, -32.592592592593, 6.5
1103, 35, -29.62962962963, 6.5
1104, 35, -35.555555555556, 6.5
1105, 35, -23.703703703704, 6.5
1106, 35, -20.740740740741, 6.5
1107, 35, 14.814814814815, 6.5
1108, 35, 35.555555555556, 6.5
1109, 35, 20.740740740741, 6.5
1110, 35, 23.703703703704, 6.5
1111, 35, 26.666666666667, 6.5
1112, 35, 11.851851851852, 6.5
1113, 35, 32.592592592593, 6.5
1114, 35, 17.777777777778, 6.5
1115, 35, 29.62962962963, 6.5
1116, 35, 38.518518518518, 6.5
1117, 4.5, 42, 6.5
1118, 31.5, 42, 6.5
1119, 7.5, 42, 6.5
1120, 10.5, 42, 6.5
1121, 13.5, 42, 6.5
1122, 16.5, 42, 6.5
1123, 19.5, 42, 6.5
1124, 22.5, 42, 6.5
1125, 25.5, 42, 6.5
1126, 28.5, 42, 6.5
1127, -11.025, -27.321058083756, 8
1128, -11.025, 27.321058083756, 8
1129, 15.176071013809, -24.025128347064, 8
1130, 15.130740392012, 24.125222255387, 8
1131, -7.2138431605877, -17.800831652021, 8
1132, -7.2138431605877, 17.800831652021, 8
1133, 16.022831922259, -35.8449311556, 8
1134, 19.980664581547, 35.874295350848, 8
1135, 19.980664581547, -35.874295350848, 8
1136, 16.022831922259, 35.844931157454, 8
1137, -3.0873825715997, 30.576996880133, 8
1138, -3.2999005544778, -30.747637869029, 8
1139, 19.3, -34.729298126068, 8
1140, 19.3, 34.729298126068, 8
1141, 24.828902428107, -15.407143748411, 8
1142, 25.415161518638, 15.128573046807, 8
1143, 32.561531068285, 26.398380534799, 8
1144, 32.625302666979, -26.487343577136, 8
1145, 20.731345115866, -34.686577373847, 8
1146, 20.731345115866, 34.686577373847, 8
1147, 19.865420690948, -33.346578233853, 8
1148, 21.53614669477, -33.375287715891, 8
1149, 19.868687529398, 33.34783482173, 8
1150, 21.536691167845, 33.375497147204, 8
1151, -7.9915310818858, -19.160397688537, 8
1152, -6.3907387738779, -19.158908686646, 8
1153, -7.9915310818858, 19.160514171893, 8
1154, -6.3907387738779, 19.158928100538, 8
1155, 20.677179154909, -31.928641768506, 8
1156, 19.159317380715, -32.124235930796, 8
1157, 20.677814373496, 31.928886105038, 8
1158, 19.023946505359, 32.053492103369, 8
1159, 8.473719480546, -35.589576283597, 8
1160, 8.4702295446459, 35.569454933622, 8
1161, 22.386596393224, 31.956368302058, 8
1162, 21.500075743853, 30.346028910529, 8
1163, 22.386399777947, -31.956292674084, 8
1164, 21.499937104875, -30.345975583112, 8
1165, -11.84631378295, -25.880986886671, 8
1166, -11.845085957938, 25.882096838953, 8
1167, -7.2090875635415, 20.610830423488, 8
1168, -5.5045994790448, 20.596758269927, 8
1169, -7.2090875635415, -20.610807773946, 8
1170, -5.5045994790448, -20.596751259354, 8
1171, 21.356974327132, -35.937855579489, 8
1172, 21.380757254975, 36.032362975598, 8
1173, -7.2077852869387, 8.8902278419673, 8
1174, -7.2077852869387, -8.8902278419673, 8
1175, -6.3683693535501, 22.123264623824, 8
1176, -4.5648350329349, 22.112251099343, 8
1177, -6.3683693535501, -22.123261092858, 8
1178, -4.5648350329349, -22.11224934242, 8
1179, 6.0232674058727, 34.096505161179, 8
1180, 6.1215133948166, -34.17199152422, 8
1181, 4.9094231509756, 24.108536780995, 8
1182, 4.9097304515241, -24.108412927293, 8
1183, 23.37377190305, -30.369874249879, 8
1184, 22.406990778741, -28.599895498679, 8
1185, 23.373827778759, 30.369895742444, 8
1186, 22.407023197856, 28.599907968676, 8
1187, 3.9738743706587, 21.80288775905, 8
1188, -3.8083778513222, 20.571885200741, 8
1189, 4.0072794210281, -21.923100453563, 8
1190, -3.7961645753346, -20.567565439403, 8
1191, -8.8570399540563, 20.545930235302, 8
1192, -8.8570399540563, -20.545930235302, 8
1193, -5.4759997410253, -23.725983850858, 8
1194, -3.5870654241876, -23.706432977908, 8
1195, -5.4759997410253, 23.725984732172, 8
1196, -3.5870654241875, 23.706433417614, 8
1197, 12.072610994653, 27.245139933778, 8
1198, 12.373029520858, -26.773317507634, 8
1199, 30, 34.142116167511, 8
1200, 30, -34.142116167511, 8
1201, 16.202932035562, 22.061826279628, 8
1202, 16.100221742069, -21.753116663666, 8
1203, 23.172759982242, 33.519095594419, 8
1204, 23.172636467516, -33.519048084538, 8
1205, 32.571067442655, -20.909181284613, 8
1206, 32.534470970445, 20.442975974682, 8
1207, 24.485323646757, 28.644290243404, 8
1208, 23.423117004923, 26.737777777198, 8
1209, 24.485323646758, -28.644290243404, 8
1210, 23.423114248196, -26.737776716824, 8
1211, -14.943163093589, 2.1333855476138e-14, 8
1212, -5.6868468721853, -17.800602380572, 8
1213, -5.6908803360938, 17.777932693565, 8
1214, 5.792005935146, 26.513585070842, 8
1215, 3.4160273002647, 26.13883217767, 8
1216, 5.8425540295492, -26.495899309819, 8
1217, 3.4195449994293, -26.131762449991, 8
1218, 20.434267494526, -28.708875885345, 8
1219, 20.430475685049, 28.700889287784, 8
1220, 15.293794087027, -37.029867519589, 8
1221, 14.606254026228, -35.789943301297, 8
1222, 15.417829313275, -34.590084064771, 8
1223, 13.909013750089, -34.464249497231, 8
1224, 14.841488343297, -33.180306110982, 8
1225, 13.159761958458, -33.031473707441, 8
1226, 13.105774902674, -35.708620018163, 8
1227, 9.2915402962019, -37.017390894884, 8
1228, 15.332851493728, 37.061036261362, 8
1229, 14.615142830191, 35.801554995571, 8
1230, 15.423494158312, 34.590292512895, 8
1231, 13.911439358256, 34.466219520964, 8
1232, 14.832544992612, 33.210379282962, 8
1233, 13.158675668038, 33.03681424006, 8
1234, 13.126742771932, 35.743359067498, 8
1235, 9.2909586402185, 37.014037336555, 8
1236, 28.26998303898, -34.084810264014, 8
1237, 29.167570946606, -32.530626856485, 8
1238, 28.270250508718, 34.084964687739, 8
1239, 29.167615524895, 32.530652593772, 8
1240, -15.027600690172, -5.6403197179553, 8
1241, -15.025664835388, 5.6402347359639, 8
1242, -0.62055706484899, 30.934316447477, 8
1243, 0.018015896704792, -31.835185434277, 8
1244, -4.5366368196776, -25.381826560245, 8
1245, -4.5366368196775, 25.38182671751, 8
1246, -10.189713048457, 25.886165366199, 8
1247, -9.3150929761772, 27.282106973555, 8
1248, -10.189713048457, -25.886165366199, 8
1249, -9.3150929761772, -27.282106973555, 8
1250, 25.806124687573, 26.793991402791, 8
1251, 24.575884627465, 24.72978476441, 8
1252, 25.746338936394, -26.761727161467, 8
1253, 24.52348193197, -24.739438787305, 8
1254, 4.2986544281472, 28.355240431768, 8
1255, 6.4023709182869, 28.789287398885, 8
1256, 4.3461308068571, -28.388769259603, 8
1257, 6.4193649679933, -28.894654827312, 8
1258, -2.5928908642408, -25.35569628258, 8
1259, -2.5928908642408, 25.35569628258, 8
1260, -0.93103597121703, 15.167214279198, 8
1261, -0.93103597121701, -15.167214279198, 8
1262, -11.076146278281, -24.462642480728, 8
1263, -11.075941640779, 24.462827472776, 8
1264, -11.872363636971, -15.200505643983, 8
1265, -11.009421307865, -13.681751397286, 8
1266, -11.872363636971, 15.200505643983, 8
1267, -11.009421307865, 13.681868747784, 8
1268, -11.845862359247, 17.801107115408, 8
1269, -11.845862359247, -17.801107115408, 8
1270, 21.891644228136, -24.609657705687, 8
1271, 23.31391314793, -22.672236077507, 8
1272, 22.195788570561, 24.752342762895, 8
1273, 23.32471769022, 22.646045483112, 8
1274, -7.6019474119082, 3.0290721848057, 8
1275, -7.6086987856758, -3.0681547139696, 8
1276, 19.317924013456, -15.469505430757, 8
1277, 19.295446194555, 15.635717859335, 8
1278, 25.741341906166, 22.635336331251, 8
1279, 25.783286759337, -22.614181146976, 8
1280, -1.6102008662108, -23.610519460386, 8
1281, -1.5716858153458, 23.734095399156, 8
1282, 27.837683007545, 14.555591770997, 8
1283, 27.482314860954, -15.229892073782, 8
1284, 14.166819158624, -31.626353301184, 8
1285, 14.165147551773, 31.632255585284, 8
1286, 12.375652755605, 31.470768778664, 8
1287, 12.375634528707, -31.476280676633, 8
1288, -7.1959871722464, 15.194888053475, 8
1289, -7.1959871722464, -15.194888053475, 8
1290, 27.199667016997, 16.773298299025, 8
1291, 2.0765290464802, -32.131788365291, 8
1292, -12.765855448999, 24.45523182588, 8
1293, -11.905554336592, 22.805552945208, 8
1294, -12.76574886622, -24.455201707489, 8
1295, -11.905561483438, -22.805537266605, 8
1296, -7.9518073950554, -14.031716834826, 8
1297, -7.9518073950554, 14.031857655422, 8
1298, 4.3384967355746, 34.051712110488, 8
1299, 20.131086264059, -38.144181595198, 8
1300, 20.131086264059, 38.144181595198, 8
1301, 27.408164686385, 32.548637286293, 8
1302, 28.35986670618, 30.828482712279, 8
1303, 27.40811267838, -32.548607259458, 8
1304, 28.359850608464, -30.828473418258, 8
1305, 11.44458995649, -32.919809883702, 8
1306, 10.532350790923, -31.365286437555, 8
1307, 11.473345574558, 32.92453373065, 8
1308, 10.662393445731, 31.390103868246, 8
1309, -9.6329005010629, -24.517232536087, 8
1310, -9.6328663948125, 24.517263368095, 8
1311, -4.0180158967048, 14.164814565723, 8
1312, -4.0180158967048, -14.164814565723, 8
1313, 1.7969709040995, -28.059801648514, 8
1314, 29.664100779598, 16.087284122694, 8
1315, 5.243647316668, 32.528841810341, 8
1316, 30.164814565723, -12.018015896705, 8
1317, 30.141271369742, 11.786695650848, 8
1318, 24.704336101495, 17.736686639493, 8
1319, -12.878517077645, -13.673409131758, 8
1320, -11.856505690731, -11.933881565034, 8
1321, -12.878517077645, 13.673428690174, 8
1322, -11.856505690731, 11.933887504786, 8
1323, 33.613378086481, 39.613378086481, 8
1324, 26.491968187607, -34.070704655925, 8
1325, 26.492197270484, 34.070836916986, 8
1326, 30.46969585896, -31.033393776615, 8
1327, 30.469705971627, 31.033399615166, 8
1328, 3.2803637564621, 32.370951666806, 8
1329, 24.497303434257, -20.436616818609, 8
1330, 21.510767131642, -20.38796956562, 8
1331, 27.236845094199, -20.154025474899, 8
1332, 20.963611723016, 22.636437838092, 8
1333, 19.387080764251, 24.944702683708, 8
1334, 7.1128520943208, 32.649147922446, 8
1335, -3.5426246866964, -27.099336900439, 8
1336, -5.5119954391933, -27.075595955936, 8
1337, -3.6459868619444, 27.027822261564, 8
1338, -1.9634595878711, 27.161634649751, 8
1339, -5.5327167189641, 27.0695190809, 8
1340, 17.637932775038, -23.712636957184, 8
1341, 16.733292815872, -26.055232145747, 8
1342, 5.0233318919563, -30.452126821796, 8
1343, 28.411957790588, -22.694399244034, 8
1344, 27.424655298499, -38.528137483172, 8
1345, 27.506417247736, 38.432765888587, 8
1346, 5.0443892132167, 15.522995829897, 8
1347, 4.9176406826561, -15.548101054733, 8
1348, 1.937516080457, 28.208954939199, 8
1349, 15.893441917423, 31.759722543105, 8
1350, 15.224017495456, 30.112260355419, 8
1351, 15.891469860587, -31.754397099775, 8
1352, 15.223964545784, -30.113142278406, 8
1353, -11.07537471205, 19.205223998114, 8
1354, -13.216138641342, 19.418076132469, 8
1355, -11.07537471205, -19.205107514757, 8
1356, -13.216138641342, -19.418059491989, 8
1357, 29.509663145095, -29.028515514591, 8
1358, 29.50789873443, 29.032354040976, 8
1359, 26.497981890631, 36.995708575593, 8
1360, 26.484087429354, -37.011449417632, 8
1361, 10.085733724483, -35.678560918009, 8
1362, 10.909796557148, -37.074118192337, 8
1363, 10.085203914016, 35.634787693933, 8
1364, 10.915421965756, 37.078731234609, 8
1365, 9.7250497466145, -32.852229892181, 8
1366, 30.987195628473, -10.181075938366, 8
1367, 30.987195628473, 10.181075938366, 8
1368, -1.6076079796045, -27.123087732023, 8
1369, -13.673250968077, -17.402428469874, 8
1370, -13.673250968077, 17.402431243287, 8
1371, 28.703675037523, 18.293548473137, 8
1372, -13.711801808002, 23.217606829143, 8
1373, -13.711781920815, -23.217597669744, 8
1374, 21.964650038978, 20.539691521915, 8
1375, 4.3456591356632, -34.110507311881, 8
1376, 9.2334776386679, 34.233635061901, 8
1377, 25.531305213851, -38.574158275335, 8
1378, 24.522945050493, -36.871809641869, 8
1379, 23.591330528628, -38.664004839353, 8
1380, 25.576205149341, 38.498939898691, 8
1381, 24.522945050493, 36.871809641869, 8
1382, 23.591330528628, 38.664004839354, 8
1383, 17.196261273394, -30.23175340355, 8
1384, 16.993254622902, 30.308831211609, 8
1385, 16.375586037159, 28.529939080688, 8
1386, 8.7409777748213, -31.272215621589, 8
1387, 9.6854589055296, -29.59936347632, 8
1388, 10.087481449876, -38.487789189102, 8
1389, 12.293040159741, -38.359532153194, 8
1390, 10.087481449876, 38.487789189102, 8
1391, 11.859513612445, 38.606564233165, 8
1392, 32.686568567493, -14.84231356897, 8
1393, -8.5, 30.575128869404, 8
1394, -8.5, -30.575128869404, 8
1395, 13.44033279331, 15.425542039239, 8
1396, 13.45, -15.511473670975, 8
1397, 19.639529761032, 20.310026684014, 8
1398, 25.854784749879, -32.381182961069, 8
1399, 25.854831598359, 32.381210009052, 8
1400, -13.596733418101, -11.970751890878, 8
1401, -13.061139797028, -10.25497014286, 8
1402, -13.596733418101, 11.970756990512, 8
1403, -13.061139797028, 10.254971982757, 8
1404, -9.8350105141938, 12.093417810287, 8
1405, -9.8350105141938, -12.093381914079, 8
1406, -6.0178555871288, -12.079033260723, 8
1407, -6.0178555871288, 12.079033260723, 8
1408, 1.2361510651943, 25.843603647527, 8
1409, 3.3747942641559, -38.335826734427, 8
1410, 3.7974177046008, 38.540108712914, 8
1411, -4.4902989923095, -28.864525667699, 8
1412, -4.560802427927, 28.786179643284, 8
1413, 31.946626377635, -33.980783471718, 8
1414, 31.946893847373, 33.980629047993, 8
1415, 1.2206752417632, -25.617075998402, 8
1416, 19.137852536293, -25.65967925588, 8
1417, 10.016961037959, 28.185557056469, 8
1418, 23.230597844254, -18.000021426839, 8
1419, 18.981722737551, -21.478032541068, 8
1420, 16.999408682033, -19.678597124271, 8
1421, 7.6969300470334, 16.992897816082, 8
1422, 7.6138560276194, -17.035640257783, 8
1423, 32.158768209979, -7.5800246888028e-14, 8
1424, 31.883961015875, -6.2092133559781, 8
1425, 31.883961015875, 6.209213355978, 8
1426, 32.487344326331, -37.989922252364, 8
1427, -7.3005539035964, -23.506553676497, 8
1428, -7.3005539035964, 23.506554411877, 8
1429, -10.970833333333, 30.709011797608, 8
1430, -10.833333333333, -30.472686647186, 8
1431, 2.8959051536926, 30.157247708008, 8
1432, 11.593710237435, 29.642318172064, 8
1433, 19.486517230726, -39.842160347383, 8
1434, 21.309926361924, -39.50403575008, 8
1435, 19.486517230726, 39.844405819126, 8
1436, 21.309926361924, 39.504226691555, 8
1437, -6.6767308984191, 28.810983437267, 8
1438, -6.6615267791877, -28.825053920509, 8
1439, 26.951723037644, 29.119343287627, 8
1440, 26.925133199176, -29.08542720889, 8
1441, 28.198806024459, 26.941992121083, 8
1442, 28.288239811767, -27.005854370481, 8
1443, 32.441827831347, 15.326458689256, 8
1444, 2.8899969637565, -30.196818210387, 8
1445, 31.209259468307, 18.008290523059, 8
1446, 22.468950096634, 16.096638776604, 8
1447, 10.297743212233, -15.644331067545, 8
1448, 10.280024056875, 15.555727449329, 8
1449, 13.810330149637, -36.983875073886, 8
1450, 14.554620241682, -38.507387795163, 8
1451, 13.899624585866, 37.098493038526, 8
1452, 14.76871617376, 38.548693825529, 8
1453, 16.285253189659, -28.16681876917, 8
1454, 1.7161269124237, 15.357396729451, 8
1455, 0.024516771510385, 17.470503706405, 8
1456, -2.2407054109463, 17.094872011979, 8
1457, 2.8302893796966, 17.645070036376, 8
1458, 1.1867781744225, 19.719168618907, 8
1459, -1.0583547758475, 19.259162146245, 8
1460, -0.59159631692791, 21.621096702568, 8
1461, 1.7133715257316, -15.324332601658, 8
1462, 0.076921943533828, -17.411522124416, 8
1463, -2.3537717956213, -17.103816401263, 8
1464, 2.6839659333934, -17.660122951023, 8
1465, 0.93532416689139, -19.552461641406, 8
1466, -1.2275404337912, -19.205754596696, 8
1467, 7.6024700807294, -32.857743633759, 8
1468, 20.594404462623, -17.729277574677, 8
1469, -0.66405648355949, -21.437867286317, 8
1470, 31.503318021744, 40.400078274743, 8
1471, 2.5499292011642, 23.894048406464, 8
1472, 2.5404383427265, -23.772744310804, 8
1473, 21.798500464058, -37.768142713954, 8
1474, 21.798500464058, 37.768142713954, 8
1475, -14.718335092282, 24.617604169602, 8
1476, -14.717968687423, -24.617783328967, 8
1477, 26.014039409902, -17.798530725343, 8
1478, 28.907063415663, -17.80055453435, 8
1479, 32.095738630633, -17.929697173612, 8
1480, -7.4353219740646, -6.0947643552469, 8
1481, -10.072005762813, -4.681844591711, 8
1482, -10.271385814297, -1.7281135787814, 8
1483, -9.7234420089601, -7.9283589838337, 8
1484, -12.873129051557, -3.079151208036, 8
1485, -7.4341967451033, 6.0882506003863, 8
1486, -10.072005762813, 4.681844591711, 8
1487, -9.7234420089601, 7.9283589838337, 8
1488, -10.271385814297, 1.7281135787814, 8
1489, -12.872040241783, 3.0791390677515, 8
1490, -5.7252877209959, -30.83539105444, 8
1491, -5.7041526496576, 30.791548138348, 8
1492, 14.346891462329, -28.323237552101, 8
1493, 19.833345909454, -23.55138606201, 8
1494, 32.537565272859, -11.804794804488, 8
1495, 32.369021888071, 11.902262983706, 8
1496, -11.753810573279, -20.834988948178, 8
1497, -10.148454998626, -21.857869793105, 8
1498, -11.753809722464, 20.835006662754, 8
1499, -10.148454182539, 21.857873200572, 8
1500, 14.157359998721, 28.154883104497, 8
1501, 32.687887477667, -23.715067601677, 8
1502, 32.491046823022, 23.603215765765, 8
1503, 29.94323772368, 22.222080049326, 8
1504, 22.045304791407, -15.434324696781, 8
1505, 32.007121537642, -3.0225232136507, 8
1506, 32.007121537642, 3.0225232136506, 8
1507, 32.500286349392, 38.756751569884, 8
1508, 16.467923290717, -15.375693347374, 8
1509, 16.36454399827, 15.489524121366, 8
1510, 17.768722461544, 17.937743304929, 8
1511, 14.982762540213, 17.938141524695, 8
1512, 25.242573297958, 30.624098991632, 8
1513, 25.238124537515, -30.618438221752, 8
1514, 29.326967526082, -13.85838540727, 8
1515, 4.8834702315388, 30.474535003808, 8
1516, 1.3923265962193, 31.66156538151, 8
1517, -6.7062201275965, 25.323626565363, 8
1518, -7.4377130538283, 27.025441327234, 8
1519, -6.7032599447721, -25.324494436946, 8
1520, -7.4377130538283, -27.025441327234, 8
1521, -7.6255696376964, -0.0065137548606514, 8
1522, 32.202597871637, 29.226712828611, 8
1523, 32.231773586224, -29.264341848767, 8
1524, 20.654087796607, 18.181115196826, 8
1525, -1.3891762590226, 28.974006146948, 8
1526, 5.3431518496522, -32.386936346255, 8
1527, 15.57413076561, 26.55895010908, 8
1528, 17.75384114191, 26.842040809291, 8
1529, 32.553271574244, 31.8195732919, 8
1530, 32.553271574244, -31.8195732919, 8
1531, -15.4688179054, -20.589086094465, 8
1532, -15.4688179054, 20.589088867878, 8
1533, -2.4554665290406, -28.811306405922, 8
1534, -0.40393347983512, -28.748317486982, 8
1535, 2.4280057769138, 34.184481172435, 8
1536, 2.8044124587456, 35.947710031454, 8
1537, 29.784961476769, 24.816694397338, 8
1538, -8.1963260960686, -21.93881419459, 8
1539, -8.196325960054, 21.938819248483, 8
1540, -13.579879416536, 25.945745941549, 8
1541, -13.580005222766, -25.945585789664, 8
1542, -12.412074387345, -6.3809727396617, 8
1543, -12.411570276585, 6.3809565526157, 8
1544, 5.2185646968729, -18.188128101801, 8
1545, 26.998946720461, 24.780885415862, 8
1546, 4.3705933700381, -40.083591771724, 8
1547, 4.4410306101122, 40.117065145451, 8
1548, 30.068773903907, -24.969430206572, 8
1549, -6.4163803925474, 13.773649143537, 8
1550, -5.4786865901477, 15.065625028612, 8
1551, -6.4163803925474, -13.773643034077, 8
1552, -5.4786865901477, -15.065624155832, 8
1553, 17.570811927748, 23.688725176841, 8
1554, -13.535271439968, -15.527915229803, 8
1555, -13.535271439968, 15.527918951775, 8
1556, 7.65, 34.142116167511, 8
1557, 0.30228043192143, 29.150274812646, 8
1558, -9.5341408865143, -19.159591482495, 8
1559, -9.5341408865143, 19.159630310281, 8
1560, 18.378139000469, -28.798369680698, 8
1561, 18.47128356732, 28.971942357466, 8
1562, 27.376521002774, 35.538577678429, 8
1563, 27.374122500459, -35.541153371304, 8
1564, 29.932915333425, -20.239340684882, 8
1565, 31.65, -40.023555524641, 8
1566, 3.3568850767176, -35.551469064689, 8
1567, -10.840270934639, -10.199950100722, 8
1568, -10.840270934639, 10.199957380032, 8
1569, -3.9047766565262, -15.973065342449, 8
1570, -3.9047766565262, 15.973065342449, 8
1571, 27.137013188994, -24.797505152806, 8
1572, 12.324703870543, -34.364889234882, 8
1573, 12.330782775908, 34.370457503052, 8
1574, 17.992602344091, 34.883658539306, 8
1575, 17.988682137951, -34.882150631629, 8
1576, 14.923754180838, -17.863856986156, 8
1577, 22.273971480389, 34.771040397101, 8
1578, 23.895967706304, 34.987142082657, 8
1579, 22.881314911483, 36.14308973852, 8
1580, 22.266994647991, -34.756629468219, 8
1581, 23.895967706304, -34.987142082657, 8
1582, 22.847160434985, -36.116802273211, 8
1583, 8.2362170690285, -27.456586031692, 8
1584, -6.5, -16.5, 8
1585, -6.5, 16.5, 8
1586, 21.260867318758, 26.743537258402, 8
1587, 21.105450612308, -26.94758338652, 8
1588, 16.405316015927, 33.266950636054, 8
1589, 16.396890626365, -33.263768794089, 8
1590, 24.579262209147, 20.156822770635, 8
1591, 27.670340250746, 20.680502831142, 8
1592, 16.7, 34.74833395016, 8
1593, 18.124647205397, 33.543332280865, 8
1594, 16.7, -34.748333939039, 8
1595, 18.14286440394, -33.551382304249, 8
1596, 30, 39.832586903062, 8
1597, 28.351239126629, -40.170618516559, 8
1598, -14.964447771445, -8.482254016888, 8
1599, -14.964320742835, 8.48224884565, 8
1600, -2.7251240147253, 22.071912506746, 8
1601, -2.7368731626929, -22.070325452425, 8
1602, 16.095530881966, 39.774617202564, 8
1603, 16.17705890769, -39.900412152439, 8
1604, -10.2, -28.75, 8
1605, -10.2, 28.75, 8
1606, 25.512870075406, 35.481483258732, 8
1607, 25.512153271363, -35.482272178012, 8
1608, 2.4255494570207, -33.944831522347, 8
1609, -9.5, 13.901923788647, 8
1610, -9.5, -13.901219685664, 8
1611, 5.4863506246687, 18.044876730926, 8
1612, 2.6695099201573, -36.93712054888, 8
1613, 11.475710364463, -29.769543836167, 8
1614, -7.9633178690326, -12.440094293387, 8
1615, -7.9633178690326, 12.440220997565, 8
1616, -4.774849870672, -19.144651919281, 8
1617, -4.7413019241508, 19.086686943116, 8
1618, 6.8522153117128, 30.814531135664, 8
1619, 8.7094597098573, 31.499112573483, 8
1620, 11.636259072531, 35.706541257569, 8
1621, 11.621358117689, -35.692416080056, 8
1622, 19.276405914355, -30.557594675182, 8
1623, 19.720836376361, 30.395862034473, 8
1624, 13.442375903495, -30.032469945522, 8
1625, 16.05, 38.12583302492, 8
1626, 16.01509464728, -38.112700098422, 8
1627, 13.419262662926, -40.247549090284, 8
1628, 13.405538342952, 29.984423042084, 8
1629, -8.5711611843983, -25.869902512496, 8
1630, -8.5711611843984, 25.869902512496, 8
1631, 8.3185651237483, 29.383187042312, 8
1632, 14.564901956113, -26.303101342645, 8
1633, 6.0437254711135, -39.782684764402, 8
1634, 8.1868006135152, -39.920448142553, 8
1635, 6.1052695669575, 39.816832665456, 8
1636, 8.1415801851506, 40.015393974233, 8
1637, 8.4081644719187, -38.170914028557, 8
1638, 8.399004055049, 38.189232483227, 8
1639, 30, -39.857883832489, 8
1640, 32.684536881481, 8.8660321731568, 8
1641, 32.708561260552, -8.7235025278297, 8
1642, 32.818161783994, -35.942145819825, 8
1643, 32.544379921294, 35.525152666873, 8
1644, 33.3000057591, 37.000002128544, 8
1645, 6.8622185976756, -31.082046756399, 8
1646, 12.461230495249, 37.103935355163, 8
1647, -12.246220803105, -2.4280568911017e-06, 8
1648, -15.568173634152, 2.9248271416955, 8
1649, 0.4131427174455, -23.481452277208, 8
1650, -12.458217813722, -16.495040558241, 8
1651, -12.458217813722, 16.495041031666, 8
1652, -15.568778567063, -2.9248465661506, 8
1653, 0.45502298300717, 23.722674677336, 8
1654, 20.513445127359, -36.944895047898, 8
1655, 20.518201712928, 36.96379652712, 8
1656, -3.0207669189226, 18.987304049501, 8
1657, 8.0091715468311, 27.14108171711, 8
1658, 3.6260212125847, -32.761446327264, 8
1659, 12.348059977378, -36.763712303527, 8
1660, 1.7660869438893, -21.702193776438, 8
1661, 30.092239689439, 13.970952914015, 8
1662, -0.6810781656344, -25.408189876005, 8
1663, -15.13301180597, -13.972292506378, 8
1664, -15.13301180597, 13.972296560666, 8
1665, -15.975, 27.321058083756, 8
1666, -15.975, -27.321058083756, 8
1667, 7.6643865478662, -34.513290881889, 8
1668, 28.393823318573, 40.093807458684, 8
1669, 24.164203561782, -32.133708962426, 8
1670, 24.165015497555, 32.13468103714, 8
1671, -8.4444685252055, -28.662253973327, 8
1672, -8.4520058529251, 28.712034307422, 8
1673, 30.325777752875, 27.044023058174, 8
1674, -8.9906886888669, 23.286122081715, 8
1675, -8.9906945319257, -23.286115410257, 8
1676, 9.1308677370079, -34.32521351519, 8
1677, -4.2049613855458, -17.59533098804, 8
1678, -15.154816992097, -16.421075242819, 8
1679, -15.370697521057, -18.519965433769, 8
1680, -15.154816992097, 16.421076749915, 8
1681, -15.370697521057, 18.519966461744, 8
1682, -0.75693618200983, 25.497751740431, 8
1683, -10.277259088344, -20.383068035709, 8
1684, -10.277258918252, 20.383086039095, 8
1685, 30.405734125998, -15.748555177607, 8
1686, 5.3793213908361, 20.168790242724, 8
1687, 10.722050525471, -34.30551992067, 8
1688, 10.77555411178, 34.268547712564, 8
1689, 10.801812684289, 40.267504410779, 8
1690, 10.849194784121, -40.213784115107, 8
1691, 9.890862417627, 32.813123471217, 8
1692, 13.434223909737, 40.059837104697, 8
1693, 14.918823889705, 20.313586293265, 8
1694, 14.740545282071, -20.145130582169, 8
1695, 3.3332240709568, -19.876444218858, 8
1696, -15.679166666667, 30.484074435515, 8
1697, -15.995, -30.195312192773, 8
1698, 17.932715227683, -39.598847709932, 8
1699, 17.916409622538, 39.574137814306, 8
1700, 30.827497383628, 32.701274143268, 8
1701, 30.827432951489, -32.701298712846, 8
1702, 30.719709774384, -22.403220586195, 8
1703, 1.9127976228531, 21.795929497382, 8
1704, 24.902929983743, -33.857889813269, 8
1705, 24.903093945129, 33.857922974354, 8
1706, -4.0516034131175, 17.571651181093, 8
1707, 0.84253988394632, -29.930875413819, 8
1708, 17.517206317226, 31.91074736356, 8
1709, 12.072905557782, -17.302186260639, 8
1710, 12.072905557782, 17.302186260639, 8
1711, 17.634363249232, -31.841098685326, 8
1712, 19.497001876526, 27.192625117228, 8
1713, 0.072567427280577, 27.464347157025, 8
1714, -8.7772040266785, 10.36730844287, 8
1715, -8.7772040266785, -10.367280129587, 8
1716, 17.88092119895, -17.597762417332, 8
1717, 17.183690816429, 20.128654543936, 8
1718, 32.882395433749, 40.422310656028, 8
1719, 27.886561600336, 22.767513478302, 8
1720, -1.2054633458837, -30.424584627031, 8
1721, -15.682353296688, 22.968005452489, 8
1722, -15.682353296688, -22.968005452489, 8
1723, 2.6127951469408, 39.307126133682, 8
1724, 2.6737659560725, -39.87545641106, 8
1725, 10.740827398143, -27.955001175312, 8
1726, 5.3621449937224, -20.258132667015, 8
1727, 30.464481858293, -27.222307521865, 8
1728, -13.576907584029, 21.303909965259, 8
1729, -13.576907068205, -21.303907276862, 8
1730, 13.771162280782, 26.033198061582, 8
1731, 3.3368681161821, 19.8074888087, 8
1732, 19.321947396961, -27.471686252424, 8
1733, -3.2060855982579, -19.039460636769, 8
1734, 22.842320915856, -40.448789978459, 8
1735, 24.65703351486, -40.160800402535, 8
1736, 22.842320915856, 40.448789978459, 8
1737, 24.948563209588, 40.246714126786, 8
1738, 8.5193303720946, 33.067427039312, 8
1739, 26.592846630768, -39.88674293552, 8
1740, 22.787228226896, 18.566873034162, 8
1741, 7.6437130322005, -14.715318915293, 8
1742, 7.65, 14.669466029342, 8
1743, 7.9888474630097, -29.660973342662, 8
1744, 30.01219669014, 19.929479570269, 8
1745, -11.892006802721, -31.605396650875, 8
1746, -13.418401360544, -31.592656096673, 8
1747, -12.039268971038, -8.5892466599151, 8
1748, -12.039178808271, 8.5892449114755, 8
1749, 26.685001785048, 39.85444547455, 8
1750, 33.882734038995, 38.481433764389, 8
1751, -2.7415200640138, -15.081782117727, 8
1752, -2.7189067870789, 15.07999323987, 8
1753, 16.966202655296, 25.27157297005, 8
1754, 0.072264576410075, -27.06844110754, 8
1755, -10.518233064474, -23.255831019753, 8
1756, -10.51821991632, 23.255843596887, 8
1757, -15.382575583331, -10.961059852455, 8
1758, -15.382564781579, 10.961060347572, 8
1759, 26.516057991851, 18.648995710532, 8
1760, 18.859963168576, 22.384936330221, 8
1761, -6.9932325539557, -10.855327105133, 8
1762, -6.9932325539557, 10.855358108625, 8
1763, 2.4950943057981, 37.401049854301, 8
1764, 31.024330011631, -13.654412971008, 8
1765, 0.075158511797952, 32.31783842858, 8
1766, 3.8996120655035, 35.345134624955, 8
1767, -5.1566862397451, 16.559258033469, 8
1768, -5.155054300881, -16.586924573378, 8
1769, -5.1616071677902, 13.406266432192, 8
1770, -5.1616071677902, -13.406265719719, 8
1771, -2.2808393165561, -20.517209558815, 8
1772, 9.8602179109459, 30.020055742515, 8
1773, -15.219642901764, 26.06014087478, 8
1774, -15.219594782038, -26.060144676276, 8
1775, 17.971296987851, -27.230357220784, 8
1776, 1.5208440376851, 33.019688792602, 8
1777, 1.4567704477219, -31.023666855944, 8
1778, -14.13869047619, 31.642429529009, 8
1779, 26.776472679583, -31.098526693439, 8
1780, 26.793416988502, 31.106929690819, 8
1781, -2.9810525144938, 28.502522032283, 8
1782, 19.19344484256, -19.374327844594, 8
1783, -8.2402980598541, 24.500693787909, 8
1784, -8.2397140131511, -24.500859714457, 8
1785, 23.239331573421, -37.362207584606, 8
1786, 21.307731025706, -22.420869023775, 8
1787, 3.8640071959331, -31.413094174042, 8
1788, 30.735852873345, -8.51725365341, 8
1789, 30.732420819191, 8.5376150313138, 8
1790, 33.424235013385, 17.810167854575, 8
1791, 12.532561672464, -28.58799463098, 8
1792, 12.80730489344, 28.756691063106, 8
1793, 27.894262335001, -13.589011108505, 8
1794, 1.3496965865112, 30.13495639526, 8
1795, 33.427468865266, -39.410102962808, 8
1796, 23.255118666636, 37.37150243268, 8
1797, 13.329820962965, 38.389923299611, 8
1798, -2.236941024716, 20.554683863987, 8
1799, 18.391555196876, 30.7661051199, 8
1800, 19.54342313967, 36.135082109358, 5
1801, 19.54342313967, -36.135082109358, 5
1802, 16.471879977909, 36.101103803382, 5
1803, 16.471879977909, -36.101103819864, 5
1804, 27.520587143298, -35.560314941743, 5
1805, 27.520587143298, 35.560314941743, 5
1806, 8.4609519580359, 35.579010239642, 5
1807, 8.475, -35.571058083756, 5
1808, 18.999774056516, -35.170197689282, 5
1809, 20.123781448158, -35.180187072404, 5
1810, 18.999799246017, 35.170091832989, 5
1811, 20.123785646408, 35.180169429689, 5
1812, 28.389789649863, 34.12017594767, 5
1813, 28.389789649863, -34.12017594767, 5
1814, 26.672020636975, -34.103517381556, 5
1815, 27.570204955168, -32.577636654895, 5
1816, 25.71000408728, -32.487285728429, 5
1817, 26.700611079267, -30.877178581741, 5
1818, 26.672020636975, 34.103517381556, 5
1819, 27.570204955168, 32.577636654895, 5
1820, 25.71000408728, 32.487285728429, 5
1821, 26.700611079267, 30.877178581741, 5
1822, 32.530581320891, -21.021266697596, 5
1823, 32.50213654667, 20.679928618547, 5
1824, 19.499419322388, -34.0894294734, 5
1825, 19.472446085523, 34.415759676106, 5
1826, 20.568418808743, 23.349734873535, 5
1827, 20.587170823491, -23.394010696162, 5
1828, 25.799328143207, 35.390738761929, 5
1829, 20.676268959735, 36.204096981846, 5
1830, 25.799328143207, -35.390738761929, 5
1831, 20.676268260027, -36.204099922299, 5
1832, 25.079266712198, 15.035456179522, 5
1833, 24.838015024848, -14.863016635849, 5
1834, -2.9297830436559, 30.77703363608, 5
1835, -2.9297830436559, -30.77703363608, 5
1836, 24.663205089551, 30.792751624634, 5
1837, 25.75127212995, 29.023074135537, 5
1838, 24.663205089551, -30.792751624634, 5
1839, 25.75127212995, -29.023074135537, 5
1840, -10.972234781812, -27.239814832895, 5
1841, -10.972234781812, 27.239814832895, 5
1842, 21.336970234642, 35.196641485089, 5
1843, 21.336969418316, -35.196644915617, 5
1844, 14.709085175247, 29.080586285007, 5
1845, 14.709085175247, -29.080586285007, 5
1846, 15.949607717109, -37.106109481322, 5
1847, 15.353468720977, -36.056753358417, 5
1848, 16.013526055788, -35.089462020107, 5
1849, 14.829035317596, -34.976459974714, 5
1850, 14.126556629646, -35.992907878547, 5
1851, 13.567871938731, -34.837979420662, 5
1852, 9.2673187106367, -36.981131448789, 5
1853, 15.976449275362, 37.013597017209, 5
1854, 15.356076145642, 36.04873156614, 5
1855, 16.013960626565, 35.088125035499, 5
1856, 14.829542316836, 34.974900178567, 5
1857, 14.134313142346, 36.001131041521, 5
1858, 13.569249190721, 34.839089981799, 5
1859, 9.2431848841258, 36.974177447685, 5
1860, 7.6116421434917, -34.132096403389, 5
1861, 7.6093008031643, 34.133421762703, 5
1862, 21.938742200316, -36.325461740016, 5
1863, 20.969901872355, -37.501106143595, 5
1864, 21.938742452988, 36.325460678186, 5
1865, 20.969894752286, 37.501090482166, 5
1866, -5.753719971316, 23.22663442754, 5
1867, -5.753719971316, -23.22663442754, 5
1868, 9.2671854194942, 34.144662488715, 5
1869, 9.2797564888168, -34.125848393757, 5
1870, -0.35328816061546, -24.24382213163, 5
1871, -0.35328816061546, 24.24382213163, 5
1872, 16.903416447338, -29.216236592241, 5
1873, 16.903416447338, 29.216236592241, 5
1874, 28.060128121848, -14.187931471408, 5
1875, 27.248509954456, 15.031816668866, 5
1876, 26.186478871804, 16.930700575314, 5
1877, 4.4598933880464, 28.968286544799, 5
1878, 4.2260929595146, -29.319325542981, 5
1879, 27.915501394968, 29.112010334798, 5
1880, 26.933599692669, 27.085303866995, 5
1881, 27.920124584078, -29.111915191765, 5
1882, 26.932721916543, -27.075574519498, 5
1883, 15.546727353526, -33.922121635184, 5
1884, 15.546884281862, 33.921638838392, 5
1885, -0.35992975925292, 25.912949398391, 5
1886, -0.3651343901653, -25.90449689113, 5
1887, 23.599689371135, 29.0242864762, 5
1888, 23.599689371135, -29.0242864762, 5
1889, 8.428767805329, -32.621746749068, 5
1890, 10.173483683795, -32.569861187557, 5
1891, 8.4269925184658, 32.624144303148, 5
1892, 10.378752515885, 32.720456177377, 5
1893, 0.082707498116741, 31.830117081422, 5
1894, 0.01801589670479, -31.835185434277, 5
1895, 12.812736360909, -35.928346832725, 5
1896, 12.814258655024, 35.92990245341, 5
1897, 13.477223955893, -37.165394197047, 5
1898, 13.478142031335, 37.181549200345, 5
1899, 22.674705476662, 35.233373862997, 5
1900, 22.037580275787, 34.0248825378, 5
1901, 22.674705298496, -35.233374611724, 5
1902, 22.037580157395, -34.02488303533, 5
1903, 22.632183964835, 37.600136925656, 5
1904, 22.632185109401, -37.600139712866, 5
1905, 29.402293678812, 32.665522210989, 5
1906, 29.402293678812, -32.665522210989, 5
1907, 23.899037615251, 16.998495937218, 5
1908, 25.025271416273, 18.928733785634, 5
1909, -10.043601134366, 28.842839087916, 5
1910, -10.04322394787, -28.843056856641, 5
1911, -9.1233480999598, 27.169676115973, 5
1912, -9.1233480999598, -27.169676115973, 5
1913, 29.278827158997, 27.203168459731, 5
1914, 28.080656981805, 25.090898511593, 5
1915, 29.290859587497, -27.196425683887, 5
1916, 28.193186019486, -24.990152178084, 5
1917, -13.406859030557, 26.134255931807, 5
1918, -13.406859030557, -26.134255931807, 5
1919, 28.427057233162, 16.937403885343, 5
1920, 2.1849463410686, 33.90991849497, 5
1921, 2.3551762931965, -33.952509257797, 5
1922, 17.016820346399, -34.216027073116, 5
1923, 17.016926437274, 34.215676356252, 5
1924, 25.779076016312, 24.966191202053, 5
1925, 25.734496735943, -24.94036737092, 5
1926, 26.992596878735, -22.784136474479, 5
1927, 6.7041283213678, 32.449445039274, 5
1928, 6.6706195170789, -32.613531568796, 5
1929, 29.998671323312, -13.46987489049, 5
1930, 29.721665577657, -15.729838655529, 5
1931, 30.164814565723, 12.018015896705, 5
1932, 20.320940226189, -17.437622225922, 5
1933, 16.372139102556, -32.825451806054, 5
1934, 14.842367099584, -32.533875499932, 5
1935, 16.372139102556, 32.825451806054, 5
1936, 14.842393254306, 32.5337950338, 5
1937, -1.8968012394396, 25.012411222967, 5
1938, -1.897668677925, -25.011002471757, 5
1939, -1.93473655968, 26.886944410851, 5
1940, -1.9357485712463, -26.885300867772, 5
1941, -0.23833518133288, -27.865586077702, 5
1942, -0.23209444334071, 27.875721260019, 5
1943, -8.0417242024322, -28.94736360198, 5
1944, -8.0474570816971, 28.945983401141, 5
1945, -10.212199214337, 25.511502625128, 5
1946, -10.212199214337, -25.511502625128, 5
1947, 27.605984883584, -38.303325954047, 5
1948, 27.605984883584, 38.303325954047, 5
1949, 22.569564948916, -31.086797550273, 5
1950, 21.371899326105, -29.155104918797, 5
1951, 20.466870646733, -31.072546031007, 5
1952, 22.569564948916, 31.086797550273, 5
1953, 21.371899326105, 29.155104918797, 5
1954, 20.466870646733, 31.072546031007, 5
1955, 12.029311560748, -37.140893284172, 5
1956, 12.029718289007, 37.143845054836, 5
1957, 9.3601879809809, -30.976668456108, 5
1958, 9.3158344582987, 30.986580017021, 5
1959, 11.273258530832, 30.886613862747, 5
1960, 11.246439312597, -30.859862770958, 5
1961, 22.458483168017, 19.266664391115, 5
1962, 30.198603296919, 29.282264424579, 5
1963, 30.211808543829, -29.283810178452, 5
1964, 26.856046626611, 22.954828158159, 5
1965, 12.241030862294, 34.695942893834, 5
1966, 12.231848887986, -34.715499925925, 5
1967, 30.987195628473, 10.181075938366, 5
1968, -6.986090745297, 27.195094937358, 5
1969, -6.9851352654195, -27.195324970831, 5
1970, 24.696694977182, 22.757054875041, 5
1971, 22.445835162429, 27.116179857608, 5
1972, 22.41940744331, -27.125944348437, 5
1973, 24.587689540554, -22.70467453959, 5
1974, 25.794813238497, -20.596994225362, 5
1975, 28.200018006958, -20.620472462696, 5
1976, 26.959785232021, -18.528873515868, 5
1977, 24.693228324374, -18.562465278138, 5
1978, 30.467710174052, 24.836647864677, 5
1979, 23.403814212332, -34.042218342865, 5
1980, 23.403814225198, 34.042218288796, 5
1981, 30.692201678613, -25.131701207816, 5
1982, 31.116596812567, -9.0316961271671, 5
1983, 17.903981554944, 38.68220376069, 5
1984, 19.044796008257, 38.877573118532, 5
1985, 16.842882669518, 38.822762540617, 5
1986, 17.903981554944, -38.68220376069, 5
1987, 19.044799093343, -38.877579534209, 5
1988, 16.842882669518, -38.822762540617, 5
1989, 12.747382284659, -38.552400617675, 5
1990, 11.113178976338, -38.45275935487, 5
1991, 12.747603085276, 38.555585080002, 5
1992, 11.109283302314, 38.462217148035, 5
1993, 14.231981139108, 38.488387426959, 5
1994, 14.328698017319, -38.546128950418, 5
1995, 32.750473054324, 14.798690804849, 5
1996, -3.6186374879282, 26.090150263947, 5
1997, -3.6189507296035, -26.089641548232, 5
1998, 17.849314402049, -32.902255433546, 5
1999, 17.85791060318, 33.020314770357, 5
2000, 3.3747943260121, 38.33582677014, 5
2001, 3.3747943260121, -38.33582677014, 5
2002, -14.163133999293, -22.634478703055, 5
2003, -14.163133999293, 22.634478703055, 5
2004, 13.051687549243, -33.528662469445, 5
2005, 12.968410987938, 33.580833582853, 5
2006, -5.9696852419332, -28.843841050961, 5
2007, -5.9707999684569, 28.843572678575, 5
2008, 31.726366793975, -14.725728725244, 5
2009, 31.418859617284, -16.856429896491, 5
2010, 31.982882598298, -12.489423931454, 5
2011, 21.969953250582, 38.711271441376, 5
2012, 21.969954842193, -38.711290356194, 5
2013, 29.187577795105, 14.108327092659, 5
2014, 32.158768209979, -7.7459998417824e-14, 5
2015, 31.883961015875, 6.209213355978, 5
2016, 21.883513922463, 17.003753970881, 5
2017, 32.487344326331, 37.989922252364, 5
2018, 32.475, -38.428941916244, 5
2019, 33.086681643589, 32.055035425247, 5
2020, 33.089328707433, -32.059488753814, 5
2021, 23.476464210689, 39.258739933976, 5
2022, 24.401951042769, 37.605955356352, 5
2023, 23.476464666718, -39.258743550981, 5
2024, 24.401951309535, -37.605956423721, 5
2025, 32.20481836408, -6.118399470315, 5
2026, -8.1993046035007, 22.885152693167, 5
2027, -8.1993046035006, -22.885152693167, 5
2028, 24.159070878367, -35.24766174554, 5
2029, 24.159070910206, 35.247661611741, 5
2030, -11.633404461778, 23.229165629007, 5
2031, -11.633404461778, -23.229165629007, 5
2032, 15.669870299502, 30.946606505745, 5
2033, 15.669865940382, -30.946619916767, 5
2034, 3.2398999137387, 35.457262092394, 5
2035, 4.0546466614757, 33.897959550997, 5
2036, 2.9845442686132, 32.359281679454, 5
2037, 3.3216960488661, -35.52119027254, 5
2038, 4.310171947855, -34.087842733016, 5
2039, 3.3460079156674, -32.450473012848, 5
2040, 32.485, -35.557377186524, 5
2041, 32.768724054388, 35.96897420367, 5
2042, -1.7648025575308, 23.185762640796, 5
2043, -1.7648025575308, -23.185762640796, 5
2044, 22.342854035541, -15.532191908424, 5
2045, 20.028925353225, 27.264050986859, 5
2046, 20.024520733372, -27.265678401997, 5
2047, 32.551315875716, 17.770256908526, 5
2048, 29.896272108128, 18.931997232966, 5
2049, 30.38305564198, 21.954515685701, 5
2050, 20.551429754787, -20.580323516901, 5
2051, 25.629871802433, -39.261495725222, 5
2052, 25.629871764803, 39.261495481345, 5
2053, 1.9502453279711, 28.860824525772, 5
2054, 1.6975739984128, -28.963866550567, 5
2055, 6.6914189867527, 29.027246618432, 5
2056, 6.6175086336454, -29.13004142446, 5
2057, 32.546694485263, 11.798562981042, 5
2058, 17.414682991591, -31.245472192053, 5
2059, 17.4161164183, 31.265146513018, 5
2060, 31.952895693188, -2.9946948223039, 5
2061, 32.007121537642, 3.0225232136506, 5
2062, 23.354895332961, -20.576229746105, 5
2063, 10.008646002869, 35.620990504489, 5
2064, 9.9952263789301, -35.613965287794, 5
2065, 8.461196791285, -38.409939840382, 5
2066, 8.4490924256872, 38.419839569563, 5
2067, 29.939609129976, -22.631231415297, 5
2068, -15.148322366231, -25.841242420116, 5
2069, -15.148538570811, 25.841117594344, 5
2070, 4.3705933803474, 40.083018154989, 5
2071, 4.3705933803474, -40.083018154989, 5
2072, -3.779383153136, 28.501004334592, 5
2073, -3.7794132283814, -28.500735207963, 5
2074, 24.902889962204, -33.92946582748, 5
2075, 24.902889969655, 33.929465796169, 5
2076, 4.8502513192988, 32.197640076309, 5
2077, 20.24754271287, 20.713163527089, 5
2078, 7.641986561279, 40.119951736639, 5
2079, 7.6475613363742, -40.11037053956, 5
2080, 9.6990731942525, -39.941007953126, 5
2081, 12.346107476944, -29.019876080154, 5
2082, 13.447519892605, -31.012906112903, 5
2083, 12.349300241019, 29.023060733939, 5
2084, 13.450585453437, 31.015951201517, 5
2085, 31.604010992998, -40.099118102913, 5
2086, 31.65, 40.023555524641, 5
2087, 29.568512040272, -18.287445766558, 5
2088, 27.566498783135, -16.312346324388, 5
2089, 21.455421490852, -32.440031839756, 5
2090, 19.917333017138, -32.742034889592, 5
2091, 21.455421495989, 32.440031818171, 5
2092, 20.095211650175, 32.624732982002, 5
2093, 26.312864016764, -37.060387421807, 5
2094, 26.312863973279, 37.060387234486, 5
2095, 14.701470302427, 37.127859806277, 5
2096, 14.816667427243, -37.241230232292, 5
2097, 31.818480322406, -27.482894428354, 5
2098, 28.14284591727, 20.977316276308, 5
2099, 31.771702907139, 27.435461930591, 5
2100, 28.235142774731, 39.976686013277, 5
2101, 28.235142781003, -39.975274571334, 5
2102, 23.099353723348, -24.752502460519, 5
2103, 10.225318757573, -29.150183415767, 5
2104, 10.225318757572, 29.150183415766, 5
2105, 23.113697663184, 24.695309307399, 5
2106, 24.603861672613, 26.985057474299, 5
2107, 18.983806968007, 29.61007227252, 5
2108, 18.982972961355, -29.607494143116, 5
2109, 13.555857278424, 40.171036040593, 5
2110, 15.433696385376, 39.708029918896, 5
2111, 13.571939958023, -40.180128884114, 5
2112, 15.487979657016, -39.693758469633, 5
2113, 32.657297659144, 29.89298792216, 5
2114, 0.071826307413691, 29.869535647135, 5
2115, -0.1493815664436, -29.785904489639, 5
2116, 32.690228177474, 23.399785098294, 5
2117, 5.6, -30.873569304916, 5
2118, 24.720296388145, -27.168638419311, 5
2119, 32.667761481956, -29.902954688671, 5
2120, 2.6235277485358, 36.863298408933, 5
2121, 2.6669453626005, -36.934913778621, 5
2122, 30.669768954698, 16.006490607805, 5
2123, 18, -35.267949192431, 5
2124, 18, 35.26753523172, 5
2125, 32.632246931239, -23.36032787413, 5
2126, 23.992572879522, -32.565998171693, 5
2127, 23.992572882908, 32.565998157463, 5
2128, -9.0356700566798, -30.788445515669, 5
2129, -9.283161656839, 30.911614024464, 5
2130, 10.807527644077, -34.227950888101, 5
2131, 19.937917370338, 36.941258995431, 5
2132, 19.5, 37.866025403784, 5
2133, 19.937928874298, -36.941268616262, 5
2134, 19.500051099436, -37.866054906058, 5
2135, 10.79471910324, 34.292963734466, 5
2136, 5.9495872238065, -34.117429440774, 5
2137, 5.8697211842178, 33.970097099466, 5
2138, -11.033982334092, -30.760074048092, 5
2139, -11.145352558241, 30.053088825218, 5
2140, 17, -35.267949192431, 5
2141, 17, 35.267949093542, 5
2142, -1.6831991731383, 29.136867360828, 5
2143, -1.7212809562484, -29.120920859241, 5
2144, -11.972750670954, 25.622835556254, 5
2145, -11.972750670954, -25.622835556254, 5
2146, 1.0716442250755, 26.929899036836, 5
2147, 1.0188208853829, -26.94678990388, 5
2148, 6.0036309433443, -39.810254505407, 5
2149, 16.547303730629, 37.729198629143, 5
2150, 16.591387981828, -37.874996990745, 5
2151, -15.975, -27.321058083756, 5
2152, -15.978559592213, 27.319002952233, 5
2153, 11.422139405086, 35.768966176437, 5
2154, 11.420185725122, -35.759468106051, 5
2155, 7.5318749971812, -30.997595126393, 5
2156, 7.5641311921768, 30.935654405138, 5
2157, 6.0025159883253, 39.812170744823, 5
2158, 32.709337554124, 8.7229726108699, 5
2159, 29.888416665735, 34.413913620193, 5
2160, 29.888416665735, -34.413913620193, 5
2161, 29.983587119796, -39.821440704355, 5
2162, 29.977028554946, 39.771625074081, 5
2163, 20.728417475708, -33.94553520435, 5
2164, 20.5307217174, 33.901719030649, 5
2165, -3.6502125088547, 24.220108250584, 5
2166, -3.6504092888815, -24.219788672763, 5
2167, 28.779002085392, 30.973419783381, 5
2168, 28.781999026537, -30.974723054998, 5
2169, 22.57009775089, 15.024022560983, 5
2170, 14.25168543798, 33.745794648821, 5
2171, 14.236280638546, -33.683621040915, 5
2172, -8.1458419028085, 25.289120805606, 5
2173, -8.1458063714868, -25.289129359834, 5
2174, 31.65385576715, -33.667672777357, 5
2175, 31.672442722284, 33.929086696634, 5
2176, 23.448163113792, 36.38557809682, 5
2177, 23.448163271901, -36.385579063309, 5
2178, 9.682383885333, 39.977396561409, 5
2179, -15.961984589754, 30.128170470792, 5
2180, -15.679166666667, -30.559471260912, 5
2181, 12.237144832712, 32.355203632386, 5
2182, 11.844616758823, -32.443194686083, 5
2183, -6.9983073010856, -30.746728695757, 5
2184, -7.0697310472885, 30.530190110785, 5
2185, 10.618505482617, 36.979001843199, 5
2186, 10.626827479413, -36.963526283153, 5
2187, 25.990547099939, 20.825170340311, 5
2188, 1.63238043178, -32.329978270484, 5
2189, 17.519907774722, 40.033442914648, 5
2190, 17.519907774722, -40.033442914648, 5
2191, 2.5805094439195, -30.817774706102, 5
2192, 33.3, -37, 5
2193, 4.9936323347476, -32.541807513497, 5
2194, 27.284805008916, 18.845515735338, 5
2195, -5.556666516802, 25.528283533108, 5
2196, -5.5565863518858, -25.528185248803, 5
2197, 22.536722901679, -18.220999983253, 5
2198, 18.386606312714, -34.142107679181, 5
2199, 18.396063818747, 34.214776247237, 5
2200, 17.982182028413, -27.617881827471, 5
2201, 17.983229753714, 27.618071970324, 5
2202, 22.396811822527, 22.013938755462, 5
2203, 20.153369567257, -15.142845419795, 5
2204, 30.966053514357, 31.466386077165, 5
2205, 30.967841200953, -31.42569527738, 5
2206, -5.0108505633519, 30.904361790053, 5
2207, -4.9472365294492, -30.949780449745, 5
2208, -15.708592996744, 24.026490354389, 5
2209, -15.708592996744, -24.026490354389, 5
2210, 19.488889338243, -40.51457124292, 5
2211, 19.488889101975, 40.514564224117, 5
2212, 24.113561696787, 20.758312429512, 5
2213, 1.438802421663, 32.572302957721, 5
2214, 1.7005951300119, 31.047664729158, 5
2215, 24.039428871567, -16.785313791016, 5
2216, 30.336433073911, -20.510563012279, 5
2217, 2.6737659560725, 39.87545641106, 5
2218, 2.6737659560725, -39.87545641106, 5
2219, 25.775245873962, -16.640729616673, 5
2220, 22.121671864658, 40.477950858391, 5
2221, 22.121671984758, -40.477957277006, 5
2222, 22.425207911681, -22.429109180336, 5
2223, 30.532186150027, -11.35208336556, 5
2224, 5.7156091867987, 30.701611501354, 5
2225, 21.248457028682, 25.435870197679, 5
2226, 21.138511567422, -25.454549129307, 5
2227, 32.788466702141, 25.520211013433, 5
2228, 11.849523559474, -39.859610348543, 5
2229, 11.844316864913, 39.865315780008, 5
2230, 15.622297250403, 38.14830588985, 5
2231, 32.806319905392, -25.499052054875, 5
2232, 15.668083610007, -38.318713896693, 5
2233, 32.816867968438, -10.472186548465, 5
2234, -13.462097073751, 24.501340801511, 5
2235, -13.46207133511, -24.501355661722, 5
2236, 3.6754449562935, 30.793926483447, 5
2237, 32.945184847483, -18.6631779779, 5
2238, 31.205917661755, 13.492267722486, 5
2239, 8.3993406789601, 29.419932891272, 5
2240, -0.47006475303598, 22.732363563892, 5
2241, -0.47006475303598, -22.732363563892, 5
2242, 20.111822113568, 18.059978330778, 5
2243, 20.122310382959, 15.194450366283, 5
2244, 24.88232483529, -36.300880145986, 5
2245, 24.88232483529, 36.300880145986, 5
2246, -11.700979099922, 31.516598037755, 5
2247, -13.67516318332, 31.560838601828, 5
2248, 20.515867496293, 38.991412588061, 5
2249, 20.515878038388, -38.991426576664, 5
2250, 13.531269988498, -32.474986794687, 5
2251, 13.550043993275, 32.646315619876, 5
2252, 8.386978073876, -29.450897684545, 5
2253, 26.547977560759, -15.000804809663, 5
2254, 22.705958976849, -33.057469956479, 5
2255, 22.705958976849, 33.057469956479, 5
2256, -5.1819541634447, -27.231545605358, 5
2257, -5.182315574324, 27.231621149516, 5
2258, -16.074345399207, 22.432193811489, 5
2259, -16.074345399207, -22.432193811489, 5
2260, 27.809924659203, 13.652331028903, 5
2261, 19.002258819946, 31.837104642431, 5
2262, 18.9309139613, -31.796098317104, 5
2263, 33.128347112465, -8.3809513253445, 5
2264, 18.954309748933, -33.20678721331, 5
2265, -3.3937470075403, 22.526501063784, 5
2266, -3.3937863635457, -22.52643714822, 5
2267, 19.205346600194, 33.395529306255, 5
2268, -14.13869047619, -31.650123082621, 5
2269, 4.1310082088578, -31.174135445945, 5
2270, 30.735963772426, 8.5171779509872, 5
2271, -1.1916896822527, 30.922710745093, 5
2272, -1.2564859339286, -30.903808883848, 5
2273, 1.0579731272656, -30.718758055919, 5
2274, 28.793578501211, 23.321304513464, 5
2275, 9.767271192193, 38.17928859967, 5
2276, 9.7726283309029, -38.173706576213, 5
2277, -15.273688548273, 31.328835688197, 5
2278, 33.427468865266, 39.410102962808, 5
2279, 33.324065957986, -39.878940952503, 5
2280, -9.826111342908, 23.700212262581, 5
2281, -9.8261077172629, -23.700213135462, 5
2282, 11.747450978863, 33.575933744635, 5
2283, 33.218082251748, -15.974993245853, 5
2284, 34, 41, 6.4897959183673
2285, -4.1427732422396, 17.013110713427, 3.9503367742085
2286, -4.1361248647485, -17.007721844257, 3.9522194572685
2287, 0.89406064956154, 17.796068896053, 3.977331109442
2288, 0.98643685292986, -17.801702186768, 3.9291922323561
2289, -9.9470259489349, -10.844798474956, 3.9855265648585
2290, -9.947029696186, 10.844841367123, 3.9855262703511
2291, -13.50682758795, -12.935635673737, 3.9869330797373
2292, -13.506846544997, 12.935655034882, 3.9869348512038
2293, 3.6216551109682, 20.513594416873, 3.2141646991364
2294, -13.558630565457, -8.7716073762435, 3.988353135806
2295, -13.558499536734, 8.7718325893548, 3.9882139543205
2296, 3.6128380586846, -20.65618315645, 3.1650042268986
2297, 4.75611243237, 16.81553192753, 3.6367829108754
2298, -7.2969679723336, -13.231128201734, 5.1719595923347
2299, -8.9790543641776, 6.7117149968772, 4.0017955319954
2300, -8.9790517810458, -6.7116516455734, 4.0017944290032
2301, 4.6834394292139, -17.055046292446, 3.6196910110611
2302, -7.2413245346798, 13.233072178576, 2.7586790265378
2303, 3.9485457338451, -23.682280368912, 3.2406317786528
2304, -14.188809602637, -17.626445807813, 4.5814037229583
2305, -14.188809563049, 17.626445777664, 4.5814035398643
2306, 3.9957378053276, 23.656899137209, 3.2558605176745
2307, -5.5866562816865, -18.714058539116, 5.4939045930354
2308, -6.0318943704993, 18.472948418658, 5.3454163498759
2309, -1.348618309065, -15.916987068457, 2.9692788100445
2310, -4.4496796193153, -15.099518032874, 5.6451191770619
2311, -4.4496795998164, 15.099518031653, 5.6422981961849
2312, -8.6516769044253, -0.026306416221144, 3.6885463386727
2313, -1.3868177224307, 15.911232667256, 2.9559873303021
2314, -12.668914160088, -4.6295012090949, 4.0618841130752
2315, -12.669008769731, 4.6296323898515, 4.0618298292393
2316, -7.2970166847137, 13.231262358773, 5.4810885587618
2317, 12.377289006048, 16.260716639919, 3.2721037193623
2318, 12.377277790623, -16.26074371635, 3.2731341924516
2319, 16.447908464625, 35.501949055338, 6.4897942906149
2320, 16.448239196224, -35.502158739097, 6.4898616969875
2321, -7.2412662358977, -13.23295076106, 2.4758600337486
2322, 19.558962994833, 35.490708339574, 6.4849186968619
2323, -5.560472811501, 16.149430185626, 2.1964255326555
2324, -5.5574120599237, -16.148958606297, 2.1973618914052
2325, 20.098044238026, -36.36329794262, 6.4822024148703
2326, -13.553316980945, 0.63937913475864, 4.1789364298519
2327, -1.6188553248233, -17.726465462937, 5.2441722890396
2328, 6.6911891481487, -20.555301252538, 2.0399484113024
2329, -1.662037050854, 17.602800939032, 5.2456092339033
2330, -10.887565526577, -12.5434958226, 5.6864076879775
2331, -10.887578415091, 12.543580560547, 5.6863965703603
2332, 14.160266885962, 35.270103626635, 6.4923796673431
2333, 14.716231238494, -36.481836070407, 6.4840072783415
2334, 15.038041919795, -17.574645033547, 4.7153121319208
2335, 18.993874222796, 33.995972355767, 6.4658351682645
2336, 15.401979676934, 36.701088598204, 6.4511106990763
2337, 20.579557644997, 36.978936596929, 6.4747074243938
2338, -2.2732771982959, -18.422274298849, 2.6161924975616
2339, 17.718188257378, -34.484361071412, 6.4445805654088
2340, -2.2814859360602, 18.426897777857, 2.6155199779869
2341, 7.7398128984413, -16.543425645916, 2.9335244723335
2342, -7.7355000598807, -9.9599884936936, 2.5296369059283
2343, -7.735504192411, 9.960045007663, 2.5296413632735
2344, 15.037020371914, 17.573136502049, 4.7201641434367
2345, 15.962078344675, -37.747986929526, 6.453944041474
2346, 15.45681756621, 24.033989813322, 2.4933594845685
2347, 15.457608767169, -24.03478101428, 2.4933594845685
2348, 2.1287669620509, -19.755213180395, 5.515580884164
2349, -7.6870597468514, 10.571148451383, 5.4173202512144
2350, 7.8346734345012, 16.428767640353, 2.9256996545951
2351, 19.499000347616, -34.83292921823, 6.5214832949225
2352, 9.0609896298073, -18.709805710333, 1.7855390391113
2353, -11.110010905649, 12.941532095765, 2.643857053652
2354, -7.7326370919222, -10.053569385105, 5.4522158058527
2355, -9.5169694101637, 3.3771299320194, 4.8255621208718
2356, -9.5168662109459, -3.3770904786479, 4.8256225628494
2357, -11.138398971275, -12.893149409509, 2.6168754810956
2358, 6.5906732222119, 20.544326780045, 2.174439236141
2359, 2.1543410506385, 19.771813544163, 5.4227571590571
2360, -12.827712649879, 14.734958255319, 5.6733519124279
2361, -12.82771344834, -14.734945185644, 5.6733533966223
2362, 8.7397620721084, 18.552198397093, 2.101812194682
2363, 1.1417840607156, 19.685271309988, 1.9710132055637
2364, -5.9298721228813, -16.571350053629, 5.4844140803786
2365, 13.605537319363, 33.698405514311, 6.5362725380546
2366, 13.438137929027, -20.516084842271, 2.0344584381412
2367, 12.498087658369, 35.326653230047, 6.5174962136935
2368, 13.369680906444, 20.537830906979, 1.9701865946307
2369, 14.819494592386, -34.198528576349, 6.484341975456
2370, -3.9091053139831, 18.551027023008, 6.007284258315
2371, 6.5444777893831, 23.444504197116, 2.1692074971825
2372, 6.5459812825803, -23.444867708156, 2.1693777712432
2373, 0.10339502400003, -15.568142870999, 5.2923783572889
2374, 21.142523677243, 35.299849546, 6.582784866492
2375, 3.9339893609531, -22.098301057311, 5.3604982467223
2376, 13.417540182871, -35.540535780371, 6.4348774709237
2377, -14.066876274259, -15.44537300944, 2.7361611465977
2378, -14.066867830927, 15.445387044342, 2.7361552707667
2379, 3.9268487784371, 22.043007906888, 5.3592280506589
2380, 1.4544999288159, -19.696655542316, 2.2308013578041
2381, 11.104515619916, 18.694675991833, 2.2120276577164
2382, 1.2703607704558, -15.605085047665, 2.3811211500828
2383, 11.045677321568, -18.848760711904, 1.7879029311299
2384, -11.970003544765, -10.397808896971, 2.3418431430684
2385, -11.973746408789, 10.46101665477, 2.3293169524481
2386, 21.103838840633, -35.160846304818, 6.5513418645148
2387, 16.324860003522, 33.853905623345, 6.4568592191874
2388, 0.081645963837212, 15.50873561053, 5.2160808030212
2389, 15.61947510635, -20.340498729788, 5.3911417892097
2390, -5.9244132447881, -18.513479671381, 3.0006058009164
2391, -6.3051436262969, 15.557954217454, 6.2427275133917
2392, 10.778060791232, 35.171398246643, 6.4871426234373
2393, 16.140422355563, 38.06151459371, 6.4560544515495
2394, 13.241763430663, 23.541942380196, 2.1367958986918
2395, 13.234857557728, -23.535645958017, 2.1474355602244
2396, 19.48990402947, -38.404759696632, 6.5314516317471
2397, 9.2486528419946, -36.093833689238, 6.5111919195123
2398, 15.579712077827, 20.307354661569, 5.311640365515
2399, -7.4997638115613, -18.539488025897, 6.1358240411617
2400, -5.4702222739371, -14.281049861, 3.6623348843652
2401, 9.2472941038871, 36.083408162719, 6.512415074367
2402, -4.0256091532548, 14.712737370633, 3.3258318547414
2403, 21.703003419701, -36.687676525717, 6.5825325434401
2404, 11.971032166422, -36.341584399473, 6.4463417927757
2405, -3.525829855804, -15.135984920993, 2.7107774187272
2406, -6.3967916227359, 18.542575351683, 2.3196515874989
2407, 14.11312824005, 37.686104641884, 6.4055899447884
2408, 15.565951333157, -23.69086728573, 5.2443828563962
2409, 13.19615468393, -33.911191618973, 6.601338121849
2410, 1.246972659371, 15.702862349712, 2.3699859833049
2411, -6.3490075742757, -14.456408608573, 6.2536522564969
2412, 11.087429007607, 25.293094146149, 2.2146377054495
2413, 16.298209129364, -34.021101319342, 6.3025805867886
2414, 18.908666864649, -33.414521850808, 6.593324540007
2415, -11.925372244263, -1.7659945859645, 2.76845941744
2416, 11.098225677554, -25.288852015685, 2.2120350779195
2417, 10.729231668223, -35.142814516977, 6.4900611660442
2418, 22.715544379665, 34.439649177836, 6.4455233456247
2419, 22.705689468841, 36.048282213006, 6.3878362771908
2420, 8.4579864393832, 33.90675614532, 6.4994723347721
2421, 10.92661852827, 33.476749296758, 6.4867081713244
2422, 22.715544442528, -34.43964974681, 6.4450010108494
2423, 15.593362989901, 23.646237260418, 5.2338452358093
2424, -3.6744016136081, -17.794881315486, 5.912927648528
2425, 15.093276088975, -15.523773292257, 2.7077499925377
2426, 17.641387469977, 34.617373997891, 6.3005284167647
2427, 15.095039841538, 15.525454595185, 2.7080618435008
2428, -14.77225267372, -18.695080426609, 2.4933594845685
2429, -14.772252743519, 18.695080496408, 2.4933594845685
2430, 20.706547952895, 33.128996971365, 6.520314308004
2431, 10.204550003338, -16.6117800942, 2.238441194503
2432, 20.705509586453, -33.085913268536, 6.5057034887621
2433, -11.924237978764, -10.108987267006, 5.5857949953588
2434, -11.924206757326, 10.109086100915, 5.5858118501731
2435, 24.146805872483, -36.031025724283, 6.5390981206238
2436, 11.510351986199, 36.663634376738, 6.5043172464644
2437, 14.09299338971, 18.015939684755, 2.2913750051086
2438, 13.759463508639, -37.944253863849, 6.5397722149452
2439, -2.1686957164026, -15.533085067757, 5.7908585772035
2440, 2.7672942535021, -16.366373616074, 5.5284553746976
2441, 9.2927409810423, -16.025158787364, 5.3162506111529
2442, 4.6509079308041, -19.267483899055, 5.7290123779407
2443, 5.8230311788691, 18.335114413308, 2.0563940568071
2444, -6.2287620277423, 14.890237076913, 4.0242750550745
2445, -11.01951421847, -26.363684419078, 6.5244590967454
2446, -11.018579472718, 26.364228557967, 6.5244608015625
******* E L E M E N T S *************
*ELEMENT, type=T3D2, ELSET=Line1
147, 1, 2
*ELEMENT, type=T3D2, ELSET=Line2
148, 3, 147
149, 147, 148
150, 148, 1
*ELEMENT, type=T3D2, ELSET=Line3
151, 4, 149
152, 149, 3
*ELEMENT, type=T3D2, ELSET=Line4
153, 5, 150
154, 150, 151
155, 151, 152
156, 152, 153
157, 153, 154
158, 154, 155
159, 155, 4
*ELEMENT, type=T3D2, ELSET=Line5
160, 5, 156
161, 156, 157
162, 157, 6
*ELEMENT, type=T3D2, ELSET=Line6
163, 6, 158
164, 158, 159
165, 159, 160
166, 160, 161
167, 161, 162
168, 162, 163
169, 163, 164
170, 164, 165
171, 165, 166
172, 166, 2
*ELEMENT, type=T3D2, ELSET=Line7
173, 7, 167
174, 167, 5
*ELEMENT, type=T3D2, ELSET=Line8
175, 8, 168
176, 168, 6
*ELEMENT, type=T3D2, ELSET=Line9
177, 7, 169
178, 169, 170
179, 170, 8
*ELEMENT, type=T3D2, ELSET=Line10
180, 1, 171
181, 171, 9
*ELEMENT, type=T3D2, ELSET=Line11
182, 9, 10
*ELEMENT, type=T3D2, ELSET=Line12
183, 2, 172
184, 172, 10
*ELEMENT, type=T3D2, ELSET=Line13
185, 8, 173
186, 173, 174
187, 174, 175
188, 175, 176
189, 176, 177
190, 177, 178
191, 178, 11
*ELEMENT, type=T3D2, ELSET=Line14
192, 7, 179
193, 179, 180
194, 180, 181
195, 181, 182
196, 182, 183
197, 183, 184
198, 184, 12
*ELEMENT, type=T3D2, ELSET=Line15
199, 12, 185
200, 185, 186
201, 186, 11
*ELEMENT, type=T3D2, ELSET=Line16
202, 13, 187
203, 187, 12
*ELEMENT, type=T3D2, ELSET=Line17
204, 14, 188
205, 188, 11
*ELEMENT, type=T3D2, ELSET=Line18
206, 13, 189
207, 189, 190
208, 190, 14
*ELEMENT, type=T3D2, ELSET=Line19
209, 15, 191
210, 191, 16
*ELEMENT, type=T3D2, ELSET=Line20
211, 16, 17
*ELEMENT, type=T3D2, ELSET=Line21
212, 18, 192
213, 192, 17
*ELEMENT, type=T3D2, ELSET=Line22
214, 15, 18
*ELEMENT, type=T3D2, ELSET=Line23
215, 19, 193
216, 193, 20
*ELEMENT, type=T3D2, ELSET=Line24
217, 20, 21
*ELEMENT, type=T3D2, ELSET=Line25
218, 22, 194
219, 194, 21
*ELEMENT, type=T3D2, ELSET=Line26
220, 19, 22
*ELEMENT, type=T3D2, ELSET=Line27
221, 23, 195
222, 195, 24
*ELEMENT, type=T3D2, ELSET=Line28
223, 23, 196
224, 196, 197
225, 197, 25
*ELEMENT, type=T3D2, ELSET=Line29
226, 25, 198
227, 198, 26
*ELEMENT, type=T3D2, ELSET=Line30
228, 24, 199
229, 199, 200
230, 200, 26
*ELEMENT, type=T3D2, ELSET=Line31
231, 25, 201
232, 201, 202
233, 202, 23
*ELEMENT, type=T3D2, ELSET=Line32
234, 26, 203
235, 203, 204
236, 204, 24
*ELEMENT, type=T3D2, ELSET=Line33
237, 27, 205
238, 205, 28
*ELEMENT, type=T3D2, ELSET=Line34
239, 27, 206
240, 206, 207
241, 207, 29
*ELEMENT, type=T3D2, ELSET=Line35
242, 29, 208
243, 208, 30
*ELEMENT, type=T3D2, ELSET=Line36
244, 28, 209
245, 209, 210
246, 210, 30
*ELEMENT, type=T3D2, ELSET=Line37
247, 29, 211
248, 211, 212
249, 212, 27
*ELEMENT, type=T3D2, ELSET=Line38
250, 30, 213
251, 213, 214
252, 214, 28
*ELEMENT, type=T3D2, ELSET=Line39
253, 31, 215
254, 215, 216
255, 216, 217
256, 217, 32
*ELEMENT, type=T3D2, ELSET=Line40
257, 32, 218
258, 218, 219
259, 219, 220
260, 220, 31
*ELEMENT, type=T3D2, ELSET=Line41
261, 33, 221
262, 221, 222
263, 222, 223
264, 223, 34
*ELEMENT, type=T3D2, ELSET=Line42
265, 34, 224
266, 224, 225
267, 225, 226
268, 226, 33
*ELEMENT, type=T3D2, ELSET=Line43
269, 35, 227
270, 227, 36
*ELEMENT, type=T3D2, ELSET=Line44
271, 36, 228
272, 228, 37
*ELEMENT, type=T3D2, ELSET=Line45
273, 38, 229
274, 229, 37
*ELEMENT, type=T3D2, ELSET=Line46
275, 35, 230
276, 230, 38
*ELEMENT, type=T3D2, ELSET=Line47
277, 39, 231
278, 231, 40
*ELEMENT, type=T3D2, ELSET=Line48
279, 40, 232
280, 232, 41
*ELEMENT, type=T3D2, ELSET=Line49
281, 42, 233
282, 233, 41
*ELEMENT, type=T3D2, ELSET=Line50
283, 39, 234
284, 234, 42
*ELEMENT, type=T3D2, ELSET=Line51
285, 43, 44
*ELEMENT, type=T3D2, ELSET=Line52
286, 45, 235
287, 235, 236
288, 236, 44
*ELEMENT, type=T3D2, ELSET=Line53
289, 46, 45
*ELEMENT, type=T3D2, ELSET=Line54
290, 46, 237
291, 237, 238
292, 238, 43
*ELEMENT, type=T3D2, ELSET=Line55
293, 44, 239
294, 239, 240
295, 240, 45
*ELEMENT, type=T3D2, ELSET=Line56
296, 43, 241
297, 241, 242
298, 242, 46
*ELEMENT, type=T3D2, ELSET=Line57
299, 47, 48
*ELEMENT, type=T3D2, ELSET=Line58
300, 49, 243
301, 243, 244
302, 244, 48
*ELEMENT, type=T3D2, ELSET=Line59
303, 50, 49
*ELEMENT, type=T3D2, ELSET=Line60
304, 50, 245
305, 245, 246
306, 246, 47
*ELEMENT, type=T3D2, ELSET=Line61
307, 48, 247
308, 247, 248
309, 248, 49
*ELEMENT, type=T3D2, ELSET=Line62
310, 47, 249
311, 249, 250
312, 250, 50
*ELEMENT, type=T3D2, ELSET=Line63
313, 51, 52
*ELEMENT, type=T3D2, ELSET=Line64
314, 53, 251
315, 251, 252
316, 252, 52
*ELEMENT, type=T3D2, ELSET=Line65
317, 54, 53
*ELEMENT, type=T3D2, ELSET=Line66
318, 54, 253
319, 253, 254
320, 254, 51
*ELEMENT, type=T3D2, ELSET=Line67
321, 52, 255
322, 255, 256
323, 256, 53
*ELEMENT, type=T3D2, ELSET=Line68
324, 51, 257
325, 257, 258
326, 258, 54
*ELEMENT, type=T3D2, ELSET=Line69
327, 55, 56
*ELEMENT, type=T3D2, ELSET=Line70
328, 57, 259
329, 259, 260
330, 260, 56
*ELEMENT, type=T3D2, ELSET=Line71
331, 58, 57
*ELEMENT, type=T3D2, ELSET=Line72
332, 58, 261
333, 261, 262
334, 262, 55
*ELEMENT, type=T3D2, ELSET=Line73
335, 56, 263
336, 263, 264
337, 264, 57
*ELEMENT, type=T3D2, ELSET=Line74
338, 55, 265
339, 265, 266
340, 266, 58
*ELEMENT, type=T3D2, ELSET=Line75
341, 59, 60
*ELEMENT, type=T3D2, ELSET=Line76
342, 61, 267
343, 267, 268
344, 268, 60
*ELEMENT, type=T3D2, ELSET=Line77
345, 62, 61
*ELEMENT, type=T3D2, ELSET=Line78
346, 62, 269
347, 269, 270
348, 270, 59
*ELEMENT, type=T3D2, ELSET=Line79
349, 60, 271
350, 271, 272
351, 272, 61
*ELEMENT, type=T3D2, ELSET=Line80
352, 59, 273
353, 273, 274
354, 274, 62
*ELEMENT, type=T3D2, ELSET=Line81
355, 63, 64
*ELEMENT, type=T3D2, ELSET=Line82
356, 65, 275
357, 275, 276
358, 276, 64
*ELEMENT, type=T3D2, ELSET=Line83
359, 66, 65
*ELEMENT, type=T3D2, ELSET=Line84
360, 66, 277
361, 277, 278
362, 278, 63
*ELEMENT, type=T3D2, ELSET=Line85
363, 64, 279
364, 279, 280
365, 280, 65
*ELEMENT, type=T3D2, ELSET=Line86
366, 63, 281
367, 281, 282
368, 282, 66
*ELEMENT, type=T3D2, ELSET=Line87
369, 31, 283
370, 283, 67
*ELEMENT, type=T3D2, ELSET=Line88
371, 68, 284
372, 284, 285
373, 285, 286
374, 286, 67
*ELEMENT, type=T3D2, ELSET=Line89
375, 32, 287
376, 287, 68
*ELEMENT, type=T3D2, ELSET=Line90
377, 67, 288
378, 288, 289
379, 289, 290
380, 290, 68
*ELEMENT, type=T3D2, ELSET=Line91
381, 33, 291
382, 291, 69
*ELEMENT, type=T3D2, ELSET=Line92
383, 70, 292
384, 292, 293
385, 293, 294
386, 294, 69
*ELEMENT, type=T3D2, ELSET=Line93
387, 34, 295
388, 295, 70
*ELEMENT, type=T3D2, ELSET=Line94
389, 69, 296
390, 296, 297
391, 297, 298
392, 298, 70
*ELEMENT, type=T3D2, ELSET=Line95
393, 71, 299
394, 299, 300
395, 300, 72
*ELEMENT, type=T3D2, ELSET=Line96
396, 72, 301
397, 301, 302
398, 302, 73
*ELEMENT, type=T3D2, ELSET=Line97
399, 74, 303
400, 303, 304
401, 304, 73
*ELEMENT, type=T3D2, ELSET=Line98
402, 71, 305
403, 305, 306
404, 306, 74
*ELEMENT, type=T3D2, ELSET=Line99
405, 72, 307
406, 307, 308
407, 308, 71
*ELEMENT, type=T3D2, ELSET=Line100
408, 73, 309
409, 309, 310
410, 310, 74
*ELEMENT, type=T3D2, ELSET=Line101
411, 75, 311
412, 311, 312
413, 312, 76
*ELEMENT, type=T3D2, ELSET=Line102
414, 76, 313
415, 313, 314
416, 314, 77
*ELEMENT, type=T3D2, ELSET=Line103
417, 78, 315
418, 315, 316
419, 316, 77
*ELEMENT, type=T3D2, ELSET=Line104
420, 75, 317
421, 317, 318
422, 318, 78
*ELEMENT, type=T3D2, ELSET=Line105
423, 76, 319
424, 319, 320
425, 320, 75
*ELEMENT, type=T3D2, ELSET=Line106
426, 77, 321
427, 321, 322
428, 322, 78
*ELEMENT, type=T3D2, ELSET=Line107
429, 79, 80
*ELEMENT, type=T3D2, ELSET=Line108
430, 80, 323
431, 323, 324
432, 324, 325
433, 325, 326
434, 326, 327
435, 327, 328
436, 328, 329
437, 329, 330
438, 330, 331
439, 331, 14
*ELEMENT, type=T3D2, ELSET=Line109
440, 81, 332
441, 332, 333
442, 333, 334
443, 334, 335
444, 335, 336
445, 336, 337
446, 337, 13
*ELEMENT, type=T3D2, ELSET=Line110
447, 81, 338
448, 338, 82
*ELEMENT, type=T3D2, ELSET=Line111
449, 79, 339
450, 339, 340
451, 340, 82
*ELEMENT, type=T3D2, ELSET=Line112
452, 83, 341
453, 341, 79
*ELEMENT, type=T3D2, ELSET=Line113
454, 84, 342
455, 342, 80
*ELEMENT, type=T3D2, ELSET=Line114
456, 83, 84
*ELEMENT, type=T3D2, ELSET=Line115
457, 84, 343
458, 343, 344
459, 344, 345
460, 345, 346
461, 346, 347
462, 347, 348
463, 348, 10
*ELEMENT, type=T3D2, ELSET=Line116
464, 83, 349
465, 349, 350
466, 350, 351
467, 351, 352
468, 352, 353
469, 353, 354
470, 354, 9
*ELEMENT, type=T3D2, ELSET=Line117
471, 85, 86
*ELEMENT, type=T3D2, ELSET=Line118
472, 16, 355
473, 355, 356
474, 356, 357
475, 357, 358
476, 358, 85
*ELEMENT, type=T3D2, ELSET=Line119
477, 17, 359
478, 359, 360
479, 360, 361
480, 361, 362
481, 362, 86
*ELEMENT, type=T3D2, ELSET=Line120
482, 87, 88
*ELEMENT, type=T3D2, ELSET=Line121
483, 87, 85
*ELEMENT, type=T3D2, ELSET=Line122
484, 88, 86
*ELEMENT, type=T3D2, ELSET=Line123
485, 89, 90
*ELEMENT, type=T3D2, ELSET=Line124
486, 90, 363
487, 363, 364
488, 364, 365
489, 365, 366
490, 366, 22
*ELEMENT, type=T3D2, ELSET=Line125
491, 89, 367
492, 367, 368
493, 368, 369
494, 369, 370
495, 370, 19
*ELEMENT, type=T3D2, ELSET=Line126
496, 91, 90
*ELEMENT, type=T3D2, ELSET=Line127
497, 92, 89
*ELEMENT, type=T3D2, ELSET=Line128
498, 92, 91
*ELEMENT, type=T3D2, ELSET=Line129
499, 93, 94
*ELEMENT, type=T3D2, ELSET=Line130
500, 93, 371
501, 371, 372
502, 372, 95
*ELEMENT, type=T3D2, ELSET=Line131
503, 95, 96
*ELEMENT, type=T3D2, ELSET=Line132
504, 94, 373
505, 373, 374
506, 374, 96
*ELEMENT, type=T3D2, ELSET=Line133
507, 95, 375
508, 375, 376
509, 376, 93
*ELEMENT, type=T3D2, ELSET=Line134
510, 96, 377
511, 377, 378
512, 378, 94
*ELEMENT, type=T3D2, ELSET=Line135
513, 94, 97
*ELEMENT, type=T3D2, ELSET=Line136
514, 98, 379
515, 379, 380
516, 380, 97
*ELEMENT, type=T3D2, ELSET=Line137
517, 96, 98
*ELEMENT, type=T3D2, ELSET=Line138
518, 97, 381
519, 381, 382
520, 382, 98
*ELEMENT, type=T3D2, ELSET=Line139
521, 99, 100
*ELEMENT, type=T3D2, ELSET=Line140
522, 99, 383
523, 383, 384
524, 384, 101
*ELEMENT, type=T3D2, ELSET=Line141
525, 101, 102
*ELEMENT, type=T3D2, ELSET=Line142
526, 100, 385
527, 385, 386
528, 386, 102
*ELEMENT, type=T3D2, ELSET=Line143
529, 101, 387
530, 387, 388
531, 388, 99
*ELEMENT, type=T3D2, ELSET=Line144
532, 102, 389
533, 389, 390
534, 390, 100
*ELEMENT, type=T3D2, ELSET=Line145
535, 100, 103
*ELEMENT, type=T3D2, ELSET=Line146
536, 104, 391
537, 391, 392
538, 392, 103
*ELEMENT, type=T3D2, ELSET=Line147
539, 102, 104
*ELEMENT, type=T3D2, ELSET=Line148
540, 103, 393
541, 393, 394
542, 394, 104
*ELEMENT, type=T3D2, ELSET=Line149
543, 105, 395
544, 395, 396
545, 396, 397
546, 397, 4
*ELEMENT, type=T3D2, ELSET=Line150
547, 106, 398
548, 398, 399
549, 399, 400
550, 400, 3
*ELEMENT, type=T3D2, ELSET=Line151
551, 105, 401
552, 401, 106
*ELEMENT, type=T3D2, ELSET=Line152
553, 106, 107
*ELEMENT, type=T3D2, ELSET=Line153
554, 108, 402
555, 402, 107
*ELEMENT, type=T3D2, ELSET=Line154
556, 105, 108
*ELEMENT, type=T3D2, ELSET=Line155
557, 36, 109
*ELEMENT, type=T3D2, ELSET=Line156
558, 37, 110
*ELEMENT, type=T3D2, ELSET=Line157
559, 110, 403
560, 403, 109
*ELEMENT, type=T3D2, ELSET=Line158
561, 111, 404
562, 404, 405
563, 405, 406
564, 406, 407
565, 407, 108
*ELEMENT, type=T3D2, ELSET=Line159
566, 112, 408
567, 408, 409
568, 409, 410
569, 410, 411
570, 411, 107
*ELEMENT, type=T3D2, ELSET=Line160
571, 111, 412
572, 412, 112
*ELEMENT, type=T3D2, ELSET=Line161
573, 110, 111
*ELEMENT, type=T3D2, ELSET=Line162
574, 109, 112
*ELEMENT, type=T3D2, ELSET=Line163
575, 113, 42
*ELEMENT, type=T3D2, ELSET=Line164
576, 114, 39
*ELEMENT, type=T3D2, ELSET=Line165
577, 113, 413
578, 413, 114
*ELEMENT, type=T3D2, ELSET=Line166
579, 114, 115
*ELEMENT, type=T3D2, ELSET=Line167
580, 116, 414
581, 414, 115
*ELEMENT, type=T3D2, ELSET=Line168
582, 113, 116
*ELEMENT, type=T3D2, ELSET=Line169
583, 82, 415
584, 415, 416
585, 416, 417
586, 417, 117
*ELEMENT, type=T3D2, ELSET=Line170
587, 81, 418
588, 418, 419
589, 419, 420
590, 420, 118
*ELEMENT, type=T3D2, ELSET=Line171
591, 118, 421
592, 421, 117
*ELEMENT, type=T3D2, ELSET=Line172
593, 119, 422
594, 422, 423
595, 423, 424
596, 424, 425
597, 425, 116
*ELEMENT, type=T3D2, ELSET=Line173
598, 120, 426
599, 426, 427
600, 427, 428
601, 428, 429
602, 429, 115
*ELEMENT, type=T3D2, ELSET=Line174
603, 119, 430
604, 430, 120
*ELEMENT, type=T3D2, ELSET=Line175
605, 118, 119
*ELEMENT, type=T3D2, ELSET=Line176
606, 117, 120
*ELEMENT, type=T3D2, ELSET=Line177
607, 40, 431
608, 431, 432
609, 432, 433
610, 433, 434
611, 434, 121
*ELEMENT, type=T3D2, ELSET=Line178
612, 41, 435
613, 435, 436
614, 436, 437
615, 437, 438
616, 438, 122
*ELEMENT, type=T3D2, ELSET=Line179
617, 122, 439
618, 439, 121
*ELEMENT, type=T3D2, ELSET=Line180
619, 123, 121
*ELEMENT, type=T3D2, ELSET=Line181
620, 124, 122
*ELEMENT, type=T3D2, ELSET=Line182
621, 124, 440
622, 440, 123
*ELEMENT, type=T3D2, ELSET=Line183
623, 125, 441
624, 441, 126
*ELEMENT, type=T3D2, ELSET=Line184
625, 38, 442
626, 442, 443
627, 443, 444
628, 444, 445
629, 445, 125
*ELEMENT, type=T3D2, ELSET=Line185
630, 35, 446
631, 446, 447
632, 447, 448
633, 448, 449
634, 449, 126
*ELEMENT, type=T3D2, ELSET=Line186
635, 127, 450
636, 450, 451
637, 451, 452
638, 452, 87
*ELEMENT, type=T3D2, ELSET=Line187
639, 91, 453
640, 453, 454
641, 454, 455
642, 455, 456
643, 456, 457
644, 457, 458
645, 458, 459
646, 459, 460
647, 460, 461
648, 461, 462
649, 462, 463
650, 463, 464
651, 464, 465
652, 465, 466
653, 466, 467
654, 467, 468
655, 468, 469
656, 469, 470
657, 470, 471
658, 471, 472
659, 472, 88
*ELEMENT, type=T3D2, ELSET=Line188
660, 92, 473
661, 473, 474
662, 474, 475
663, 475, 128
*ELEMENT, type=T3D2, ELSET=Line189
664, 128, 123
*ELEMENT, type=T3D2, ELSET=Line190
665, 124, 476
666, 476, 477
667, 477, 478
668, 478, 479
669, 479, 480
670, 480, 481
671, 481, 482
672, 482, 483
673, 483, 484
674, 484, 485
675, 485, 486
676, 486, 487
677, 487, 129
*ELEMENT, type=T3D2, ELSET=Line191
678, 129, 488
679, 488, 130
*ELEMENT, type=T3D2, ELSET=Line192
680, 130, 127
*ELEMENT, type=T3D2, ELSET=Line193
681, 129, 125
*ELEMENT, type=T3D2, ELSET=Line194
682, 130, 126
*ELEMENT, type=T3D2, ELSET=Line195
683, 131, 489
684, 489, 18
*ELEMENT, type=T3D2, ELSET=Line196
685, 15, 490
686, 490, 132
*ELEMENT, type=T3D2, ELSET=Line197
687, 131, 132
*ELEMENT, type=T3D2, ELSET=Line198
688, 132, 133
*ELEMENT, type=T3D2, ELSET=Line199
689, 134, 133
*ELEMENT, type=T3D2, ELSET=Line200
690, 131, 134
*ELEMENT, type=T3D2, ELSET=Line201
691, 135, 136
*ELEMENT, type=T3D2, ELSET=Line202
692, 134, 491
693, 491, 492
694, 492, 493
695, 493, 494
696, 494, 495
697, 495, 496
698, 496, 497
699, 497, 498
700, 498, 499
701, 499, 135
*ELEMENT, type=T3D2, ELSET=Line203
702, 133, 500
703, 500, 501
704, 501, 502
705, 502, 503
706, 503, 504
707, 504, 505
708, 505, 506
709, 506, 507
710, 507, 508
711, 508, 136
*ELEMENT, type=T3D2, ELSET=Line204
712, 137, 138
*ELEMENT, type=T3D2, ELSET=Line205
713, 137, 135
*ELEMENT, type=T3D2, ELSET=Line206
714, 138, 136
*ELEMENT, type=T3D2, ELSET=Line207
715, 139, 509
716, 509, 20
*ELEMENT, type=T3D2, ELSET=Line208
717, 21, 510
718, 510, 140
*ELEMENT, type=T3D2, ELSET=Line209
719, 140, 139
*ELEMENT, type=T3D2, ELSET=Line210
720, 141, 139
*ELEMENT, type=T3D2, ELSET=Line211
721, 142, 140
*ELEMENT, type=T3D2, ELSET=Line212
722, 142, 141
*ELEMENT, type=T3D2, ELSET=Line213
723, 143, 144
*ELEMENT, type=T3D2, ELSET=Line214
724, 137, 511
725, 511, 512
726, 512, 513
727, 513, 514
728, 514, 515
729, 515, 516
730, 516, 517
731, 517, 518
732, 518, 519
733, 519, 520
734, 520, 521
735, 521, 522
736, 522, 523
737, 523, 524
738, 524, 525
739, 525, 526
740, 526, 527
741, 527, 528
742, 528, 529
743, 529, 530
744, 530, 531
745, 531, 532
746, 532, 533
747, 533, 534
748, 534, 535
749, 535, 536
750, 536, 143
*ELEMENT, type=T3D2, ELSET=Line215
751, 138, 537
752, 537, 538
753, 538, 539
754, 539, 540
755, 540, 541
756, 541, 542
757, 542, 543
758, 543, 544
759, 544, 545
760, 545, 546
761, 546, 547
762, 547, 548
763, 548, 549
764, 549, 550
765, 550, 551
766, 551, 552
767, 552, 553
768, 553, 554
769, 554, 555
770, 555, 556
771, 556, 557
772, 557, 558
773, 558, 559
774, 559, 560
775, 560, 561
776, 561, 562
777, 562, 144
*ELEMENT, type=T3D2, ELSET=Line216
778, 141, 563
779, 563, 564
780, 564, 565
781, 565, 566
782, 566, 567
783, 567, 568
784, 568, 569
785, 569, 570
786, 570, 571
787, 571, 145
*ELEMENT, type=T3D2, ELSET=Line217
788, 142, 572
789, 572, 573
790, 573, 574
791, 574, 575
792, 575, 576
793, 576, 577
794, 577, 578
795, 578, 579
796, 579, 580
797, 580, 146
*ELEMENT, type=T3D2, ELSET=Line218
798, 146, 145
*ELEMENT, type=T3D2, ELSET=Line219
799, 146, 581
800, 581, 143
*ELEMENT, type=T3D2, ELSET=Line220
801, 144, 145
*ELEMENT, type=CPS3, ELSET=Surface1
802, 2, 1, 599
803, 1, 148, 599
804, 166, 2, 599
805, 147, 3, 598
806, 3, 149, 585
807, 164, 3, 594
808, 3, 164, 598
809, 3, 585, 594
810, 149, 4, 597
811, 4, 155, 597
812, 150, 5, 596
813, 5, 156, 596
814, 157, 6, 595
815, 6, 158, 595
816, 148, 147, 600
817, 147, 598, 600
818, 599, 148, 600
819, 585, 149, 597
820, 151, 150, 592
821, 592, 150, 596
822, 152, 151, 588
823, 588, 151, 592
824, 153, 152, 586
825, 586, 152, 588
826, 154, 153, 587
827, 153, 586, 587
828, 155, 154, 591
829, 154, 587, 591
830, 155, 591, 597
831, 156, 157, 582
832, 156, 582, 596
833, 582, 157, 595
834, 158, 159, 593
835, 158, 593, 595
836, 159, 160, 583
837, 159, 583, 593
838, 160, 161, 590
839, 583, 160, 590
840, 161, 162, 584
841, 161, 584, 590
842, 162, 163, 589
843, 584, 162, 589
844, 163, 164, 594
845, 589, 163, 594
846, 164, 165, 598
847, 165, 166, 600
848, 598, 165, 600
849, 166, 599, 600
850, 592, 582, 593
851, 582, 592, 596
852, 593, 582, 595
853, 588, 583, 590
854, 583, 588, 592
855, 583, 592, 593
856, 586, 584, 587
857, 584, 586, 590
858, 587, 584, 601
859, 584, 589, 601
860, 589, 585, 591
861, 585, 589, 594
862, 591, 585, 597
863, 586, 588, 590
864, 591, 587, 601
865, 589, 591, 601
*ELEMENT, type=CPS3, ELSET=Surface2
866, 156, 5, 603
867, 5, 167, 603
868, 6, 157, 604
869, 168, 6, 604
870, 167, 7, 603
871, 7, 169, 603
872, 8, 168, 604
873, 170, 8, 604
874, 157, 156, 602
875, 602, 156, 603
876, 157, 602, 604
877, 169, 170, 602
878, 169, 602, 603
879, 602, 170, 604
*ELEMENT, type=CPS3, ELSET=Surface3
880, 1, 2, 605
881, 171, 1, 605
882, 2, 172, 605
883, 10, 9, 606
884, 9, 171, 606
885, 172, 10, 606
886, 171, 605, 606
887, 605, 172, 606
*ELEMENT, type=CPS3, ELSET=Surface4
888, 7, 619, 169
889, 179, 619, 7
890, 170, 621, 8
891, 8, 621, 173
892, 178, 622, 11
893, 11, 622, 186
894, 12, 620, 184
895, 185, 620, 12
896, 169, 607, 170
897, 169, 619, 607
898, 607, 621, 170
899, 173, 615, 174
900, 173, 621, 615
901, 174, 609, 175
902, 174, 615, 609
903, 175, 612, 176
904, 609, 612, 175
905, 176, 610, 177
906, 176, 612, 610
907, 177, 616, 178
908, 610, 616, 177
909, 616, 622, 178
910, 180, 618, 179
911, 618, 619, 179
912, 181, 613, 180
913, 613, 618, 180
914, 182, 611, 181
915, 611, 613, 181
916, 183, 614, 182
917, 182, 614, 611
918, 184, 617, 183
919, 183, 617, 614
920, 184, 620, 617
921, 186, 608, 185
922, 608, 620, 185
923, 186, 622, 608
924, 607, 618, 615
925, 615, 621, 607
926, 607, 619, 618
927, 616, 617, 608
928, 608, 622, 616
929, 617, 620, 608
930, 611, 612, 609
931, 609, 613, 611
932, 609, 618, 613
933, 615, 618, 609
934, 610, 612, 611
935, 611, 614, 610
936, 614, 617, 610
937, 610, 617, 616
*ELEMENT, type=CPS3, ELSET=Surface5
938, 11, 186, 625
939, 188, 11, 625
940, 185, 12, 624
941, 12, 187, 624
942, 187, 13, 624
943, 13, 189, 624
944, 14, 188, 625
945, 190, 14, 625
946, 186, 185, 623
947, 623, 185, 624
948, 186, 623, 625
949, 189, 190, 623
950, 189, 623, 624
951, 623, 190, 625
*ELEMENT, type=CPS3, ELSET=Surface6
952, 15, 18, 627
953, 191, 15, 627
954, 17, 16, 626
955, 16, 191, 626
956, 192, 17, 626
957, 18, 192, 627
958, 626, 191, 627
959, 192, 626, 627
*ELEMENT, type=CPS3, ELSET=Surface7
960, 19, 22, 629
961, 193, 19, 629
962, 21, 20, 628
963, 20, 193, 628
964, 194, 21, 628
965, 22, 194, 629
966, 628, 193, 629
967, 194, 628, 629
*ELEMENT, type=CPS3, ELSET=Surface8
968, 23, 195, 633
969, 196, 23, 633
970, 195, 24, 635
971, 24, 199, 635
972, 25, 197, 632
973, 198, 25, 632
974, 26, 198, 634
975, 200, 26, 634
976, 633, 195, 635
977, 197, 196, 630
978, 630, 196, 633
979, 197, 630, 632
980, 198, 632, 634
981, 199, 200, 631
982, 199, 631, 635
983, 631, 200, 634
984, 630, 631, 634
985, 631, 630, 635
986, 632, 630, 634
987, 630, 633, 635
*ELEMENT, type=CPS3, ELSET=Surface9
988, 195, 23, 638
989, 23, 202, 638
990, 24, 195, 640
991, 204, 24, 640
992, 25, 198, 639
993, 201, 25, 639
994, 198, 26, 641
995, 26, 203, 641
996, 195, 638, 640
997, 639, 198, 641
998, 202, 201, 636
999, 636, 201, 639
1000, 202, 636, 638
1001, 203, 204, 637
1002, 203, 637, 641
1003, 637, 204, 640
1004, 636, 637, 640
1005, 637, 636, 641
1006, 638, 636, 640
1007, 636, 639, 641
*ELEMENT, type=CPS3, ELSET=Surface10
1008, 27, 205, 645
1009, 206, 27, 645
1010, 205, 28, 647
1011, 28, 209, 647
1012, 29, 207, 644
1013, 208, 29, 644
1014, 30, 208, 646
1015, 210, 30, 646
1016, 645, 205, 647
1017, 207, 206, 642
1018, 642, 206, 645
1019, 207, 642, 644
1020, 208, 644, 646
1021, 209, 210, 643
1022, 209, 643, 647
1023, 643, 210, 646
1024, 642, 643, 646
1025, 643, 642, 647
1026, 644, 642, 646
1027, 642, 645, 647
*ELEMENT, type=CPS3, ELSET=Surface11
1028, 205, 27, 652
1029, 27, 212, 652
1030, 28, 205, 650
1031, 214, 28, 650
1032, 29, 208, 653
1033, 211, 29, 653
1034, 208, 30, 651
1035, 30, 213, 651
1036, 650, 205, 652
1037, 208, 651, 653
1038, 212, 211, 649
1039, 649, 211, 653
1040, 212, 649, 652
1041, 213, 214, 648
1042, 213, 648, 651
1043, 648, 214, 650
1044, 649, 648, 652
1045, 648, 649, 653
1046, 648, 650, 652
1047, 651, 648, 653
*ELEMENT, type=CPS3, ELSET=Surface12
1048, 31, 654, 24
1049, 24, 656, 31
1050, 24, 654, 199
1051, 204, 656, 24
1052, 32, 655, 26
1053, 26, 657, 32
1054, 200, 657, 26
1055, 26, 655, 203
1056, 215, 654, 31
1057, 31, 656, 220
1058, 32, 657, 217
1059, 218, 655, 32
1060, 199, 216, 200
1061, 215, 216, 199
1062, 199, 654, 215
1063, 200, 216, 217
1064, 217, 657, 200
1065, 203, 219, 204
1066, 203, 218, 219
1067, 203, 655, 218
1068, 204, 219, 220
1069, 220, 656, 204
*ELEMENT, type=CPS3, ELSET=Surface13
1070, 34, 659, 28
1071, 28, 660, 34
1072, 28, 659, 209
1073, 214, 660, 28
1074, 33, 658, 30
1075, 30, 661, 33
1076, 210, 661, 30
1077, 30, 658, 213
1078, 221, 658, 33
1079, 33, 661, 226
1080, 34, 660, 223
1081, 224, 659, 34
1082, 209, 225, 210
1083, 209, 224, 225
1084, 209, 659, 224
1085, 210, 225, 226
1086, 226, 661, 210
1087, 213, 222, 214
1088, 213, 221, 222
1089, 213, 658, 221
1090, 222, 223, 214
1091, 223, 660, 214
*ELEMENT, type=CPS3, ELSET=Surface14
1092, 227, 35, 663
1093, 35, 230, 663
1094, 36, 227, 663
1095, 228, 36, 663
1096, 37, 228, 662
1097, 229, 37, 662
1098, 38, 229, 664
1099, 230, 38, 664
1100, 662, 228, 663
1101, 229, 662, 664
1102, 663, 230, 664
1103, 662, 663, 664
*ELEMENT, type=CPS3, ELSET=Surface15
1104, 231, 39, 666
1105, 39, 234, 666
1106, 40, 231, 666
1107, 232, 40, 666
1108, 41, 232, 665
1109, 233, 41, 665
1110, 42, 233, 667
1111, 234, 42, 667
1112, 665, 232, 666
1113, 233, 665, 667
1114, 666, 234, 667
1115, 665, 666, 667
*ELEMENT, type=CPS3, ELSET=Surface16
1116, 44, 43, 669
1117, 43, 238, 669
1118, 236, 44, 669
1119, 46, 45, 668
1120, 45, 235, 668
1121, 237, 46, 668
1122, 235, 236, 670
1123, 668, 235, 670
1124, 236, 669, 670
1125, 238, 237, 670
1126, 237, 668, 670
1127, 669, 238, 670
*ELEMENT, type=CPS3, ELSET=Surface17
1128, 43, 44, 672
1129, 241, 43, 672
1130, 44, 239, 672
1131, 45, 46, 673
1132, 240, 45, 673
1133, 46, 242, 673
1134, 239, 240, 671
1135, 239, 671, 672
1136, 671, 240, 673
1137, 242, 241, 671
1138, 671, 241, 672
1139, 242, 671, 673
*ELEMENT, type=CPS3, ELSET=Surface18
1140, 48, 47, 675
1141, 47, 246, 675
1142, 244, 48, 675
1143, 50, 49, 674
1144, 49, 243, 674
1145, 245, 50, 674
1146, 243, 244, 676
1147, 674, 243, 676
1148, 244, 675, 676
1149, 246, 245, 676
1150, 245, 674, 676
1151, 675, 246, 676
*ELEMENT, type=CPS3, ELSET=Surface19
1152, 47, 48, 677
1153, 249, 47, 677
1154, 48, 247, 677
1155, 49, 50, 678
1156, 248, 49, 678
1157, 50, 250, 678
1158, 247, 248, 679
1159, 677, 247, 679
1160, 248, 678, 679
1161, 250, 249, 679
1162, 249, 677, 679
1163, 678, 250, 679
*ELEMENT, type=CPS3, ELSET=Surface20
1164, 52, 51, 681
1165, 51, 254, 681
1166, 252, 52, 681
1167, 54, 53, 680
1168, 53, 251, 680
1169, 253, 54, 680
1170, 251, 252, 682
1171, 680, 251, 682
1172, 252, 681, 682
1173, 254, 253, 682
1174, 253, 680, 682
1175, 681, 254, 682
*ELEMENT, type=CPS3, ELSET=Surface21
1176, 51, 52, 683
1177, 257, 51, 683
1178, 52, 255, 683
1179, 53, 54, 684
1180, 256, 53, 684
1181, 54, 258, 684
1182, 255, 256, 685
1183, 683, 255, 685
1184, 256, 684, 685
1185, 258, 257, 685
1186, 257, 683, 685
1187, 684, 258, 685
*ELEMENT, type=CPS3, ELSET=Surface22
1188, 56, 55, 688
1189, 55, 262, 688
1190, 260, 56, 688
1191, 58, 57, 687
1192, 57, 259, 687
1193, 261, 58, 687
1194, 259, 260, 686
1195, 259, 686, 687
1196, 686, 260, 688
1197, 262, 261, 686
1198, 686, 261, 687
1199, 262, 686, 688
*ELEMENT, type=CPS3, ELSET=Surface23
1200, 55, 56, 690
1201, 265, 55, 690
1202, 56, 263, 690
1203, 57, 58, 691
1204, 264, 57, 691
1205, 58, 266, 691
1206, 263, 264, 689
1207, 263, 689, 690
1208, 689, 264, 691
1209, 266, 265, 689
1210, 689, 265, 690
1211, 266, 689, 691
*ELEMENT, type=CPS3, ELSET=Surface24
1212, 60, 59, 693
1213, 59, 270, 693
1214, 268, 60, 693
1215, 62, 61, 692
1216, 61, 267, 692
1217, 269, 62, 692
1218, 267, 268, 694
1219, 692, 267, 694
1220, 268, 693, 694
1221, 270, 269, 694
1222, 269, 692, 694
1223, 693, 270, 694
*ELEMENT, type=CPS3, ELSET=Surface25
1224, 59, 60, 695
1225, 273, 59, 695
1226, 60, 271, 695
1227, 61, 62, 696
1228, 272, 61, 696
1229, 62, 274, 696
1230, 271, 272, 697
1231, 695, 271, 697
1232, 272, 696, 697
1233, 274, 273, 697
1234, 273, 695, 697
1235, 696, 274, 697
*ELEMENT, type=CPS3, ELSET=Surface26
1236, 64, 63, 699
1237, 63, 278, 699
1238, 276, 64, 699
1239, 66, 65, 698
1240, 65, 275, 698
1241, 277, 66, 698
1242, 275, 276, 700
1243, 698, 275, 700
1244, 276, 699, 700
1245, 278, 277, 700
1246, 277, 698, 700
1247, 699, 278, 700
*ELEMENT, type=CPS3, ELSET=Surface27
1248, 63, 64, 701
1249, 281, 63, 701
1250, 64, 279, 701
1251, 65, 66, 702
1252, 280, 65, 702
1253, 66, 282, 702
1254, 279, 280, 703
1255, 701, 279, 703
1256, 280, 702, 703
1257, 282, 281, 703
1258, 281, 701, 703
1259, 702, 282, 703
*ELEMENT, type=CPS3, ELSET=Surface28
1260, 31, 220, 707
1261, 283, 31, 707
1262, 218, 32, 706
1263, 32, 287, 706
1264, 67, 283, 707
1265, 286, 67, 707
1266, 68, 284, 706
1267, 287, 68, 706
1268, 219, 218, 704
1269, 704, 218, 706
1270, 220, 219, 705
1271, 219, 704, 705
1272, 220, 705, 707
1273, 284, 285, 704
1274, 284, 704, 706
1275, 285, 286, 705
1276, 704, 285, 705
1277, 705, 286, 707
*ELEMENT, type=CPS3, ELSET=Surface29
1278, 215, 31, 710
1279, 31, 283, 710
1280, 32, 217, 711
1281, 287, 32, 711
1282, 283, 67, 710
1283, 67, 288, 710
1284, 68, 287, 711
1285, 290, 68, 711
1286, 216, 215, 709
1287, 709, 215, 710
1288, 217, 216, 708
1289, 708, 216, 709
1290, 217, 708, 711
1291, 288, 289, 709
1292, 288, 709, 710
1293, 289, 290, 708
1294, 289, 708, 709
1295, 708, 290, 711
*ELEMENT, type=CPS3, ELSET=Surface30
1296, 33, 226, 715
1297, 291, 33, 715
1298, 224, 34, 714
1299, 34, 295, 714
1300, 69, 291, 715
1301, 294, 69, 715
1302, 70, 292, 714
1303, 295, 70, 714
1304, 225, 224, 712
1305, 712, 224, 714
1306, 226, 225, 713
1307, 225, 712, 713
1308, 226, 713, 715
1309, 292, 293, 712
1310, 292, 712, 714
1311, 293, 294, 713
1312, 712, 293, 713
1313, 713, 294, 715
*ELEMENT, type=CPS3, ELSET=Surface31
1314, 221, 33, 718
1315, 33, 291, 718
1316, 34, 223, 719
1317, 295, 34, 719
1318, 291, 69, 718
1319, 69, 296, 718
1320, 70, 295, 719
1321, 298, 70, 719
1322, 222, 221, 717
1323, 717, 221, 718
1324, 223, 222, 716
1325, 716, 222, 717
1326, 223, 716, 719
1327, 296, 297, 717
1328, 296, 717, 718
1329, 297, 298, 716
1330, 297, 716, 717
1331, 716, 298, 719
*ELEMENT, type=CPS3, ELSET=Surface32
1332, 71, 305, 299
1333, 300, 301, 72
1334, 304, 73, 302
1335, 306, 74, 303
1336, 300, 299, 720
1337, 299, 305, 720
1338, 301, 300, 720
1339, 302, 301, 722
1340, 301, 720, 722
1341, 304, 302, 721
1342, 721, 302, 722
1343, 303, 304, 721
1344, 306, 303, 721
1345, 305, 306, 722
1346, 720, 305, 722
1347, 306, 721, 722
*ELEMENT, type=CPS3, ELSET=Surface33
1348, 308, 305, 71
1349, 72, 301, 307
1350, 302, 73, 309
1351, 310, 74, 306
1352, 301, 302, 725
1353, 307, 301, 723
1354, 723, 301, 725
1355, 302, 309, 724
1356, 302, 724, 725
1357, 306, 305, 725
1358, 305, 308, 723
1359, 305, 723, 725
1360, 310, 306, 724
1361, 724, 306, 725
1362, 308, 307, 723
1363, 309, 310, 724
*ELEMENT, type=CPS3, ELSET=Surface34
1364, 75, 317, 311
1365, 312, 313, 76
1366, 316, 77, 314
1367, 318, 78, 315
1368, 312, 311, 726
1369, 311, 317, 726
1370, 313, 312, 726
1371, 314, 313, 728
1372, 313, 726, 728
1373, 316, 314, 727
1374, 727, 314, 728
1375, 315, 316, 727
1376, 318, 315, 727
1377, 317, 318, 728
1378, 726, 317, 728
1379, 318, 727, 728
*ELEMENT, type=CPS3, ELSET=Surface35
1380, 320, 317, 75
1381, 313, 319, 76
1382, 314, 77, 321
1383, 322, 78, 318
1384, 313, 314, 731
1385, 319, 313, 729
1386, 729, 313, 731
1387, 314, 321, 730
1388, 314, 730, 731
1389, 318, 317, 731
1390, 317, 320, 729
1391, 317, 729, 731
1392, 322, 318, 730
1393, 730, 318, 731
1394, 320, 319, 729
1395, 321, 322, 730
*ELEMENT, type=CPS3, ELSET=Surface36
1396, 189, 13, 746
1397, 13, 337, 746
1398, 14, 190, 745
1399, 331, 14, 745
1400, 79, 80, 749
1401, 339, 79, 749
1402, 80, 323, 749
1403, 332, 81, 747
1404, 81, 338, 747
1405, 82, 325, 744
1406, 325, 82, 748
1407, 338, 82, 735
1408, 82, 340, 748
1409, 735, 82, 744
1410, 190, 189, 732
1411, 732, 189, 746
1412, 190, 732, 745
1413, 323, 324, 750
1414, 749, 323, 750
1415, 324, 325, 748
1416, 324, 748, 750
1417, 325, 326, 744
1418, 326, 327, 739
1419, 326, 739, 744
1420, 327, 328, 734
1421, 327, 734, 739
1422, 328, 329, 740
1423, 734, 328, 740
1424, 329, 330, 733
1425, 329, 733, 740
1426, 330, 331, 743
1427, 733, 330, 743
1428, 743, 331, 745
1429, 333, 332, 741
1430, 741, 332, 747
1431, 334, 333, 738
1432, 738, 333, 741
1433, 335, 334, 736
1434, 736, 334, 738
1435, 336, 335, 737
1436, 335, 736, 737
1437, 337, 336, 742
1438, 336, 737, 742
1439, 337, 742, 746
1440, 338, 735, 747
1441, 340, 339, 750
1442, 339, 749, 750
1443, 748, 340, 750
1444, 732, 742, 743
1445, 742, 732, 746
1446, 732, 743, 745
1447, 733, 737, 740
1448, 737, 733, 742
1449, 742, 733, 743
1450, 734, 736, 738
1451, 736, 734, 740
1452, 734, 738, 751
1453, 739, 734, 751
1454, 735, 739, 741
1455, 739, 735, 744
1456, 735, 741, 747
1457, 737, 736, 740
1458, 738, 741, 751
1459, 741, 739, 751
*ELEMENT, type=CPS3, ELSET=Surface37
1460, 80, 79, 753
1461, 79, 341, 753
1462, 342, 80, 753
1463, 83, 84, 752
1464, 341, 83, 752
1465, 84, 342, 752
1466, 341, 752, 753
1467, 752, 342, 753
*ELEMENT, type=CPS3, ELSET=Surface38
1468, 10, 755, 9
1469, 9, 755, 354
1470, 348, 755, 10
1471, 83, 756, 84
1472, 349, 756, 83
1473, 84, 756, 343
1474, 343, 757, 344
1475, 343, 756, 349
1476, 349, 757, 343
1477, 344, 754, 345
1478, 350, 754, 344
1479, 344, 757, 350
1480, 345, 758, 346
1481, 345, 754, 351
1482, 351, 758, 345
1483, 346, 760, 347
1484, 346, 758, 352
1485, 352, 760, 346
1486, 347, 759, 348
1487, 353, 759, 347
1488, 347, 760, 353
1489, 354, 755, 348
1490, 348, 759, 354
1491, 350, 757, 349
1492, 351, 754, 350
1493, 352, 758, 351
1494, 353, 760, 352
1495, 354, 759, 353
*ELEMENT, type=CPS3, ELSET=Surface39
1496, 16, 17, 765
1497, 355, 16, 765
1498, 17, 359, 765
1499, 86, 85, 761
1500, 85, 358, 761
1501, 362, 86, 761
1502, 356, 355, 762
1503, 762, 355, 765
1504, 357, 356, 763
1505, 356, 762, 763
1506, 358, 357, 764
1507, 357, 763, 764
1508, 761, 358, 764
1509, 359, 360, 762
1510, 359, 762, 765
1511, 360, 361, 763
1512, 762, 360, 763
1513, 361, 362, 764
1514, 763, 361, 764
1515, 362, 761, 764
*ELEMENT, type=CPS3, ELSET=Surface40
1516, 85, 86, 766
1517, 87, 85, 766
1518, 86, 88, 766
1519, 88, 87, 766
*ELEMENT, type=CPS3, ELSET=Surface41
1520, 22, 19, 767
1521, 19, 370, 767
1522, 366, 22, 767
1523, 89, 90, 771
1524, 367, 89, 771
1525, 90, 363, 771
1526, 363, 364, 768
1527, 363, 768, 771
1528, 364, 365, 769
1529, 768, 364, 769
1530, 365, 366, 770
1531, 769, 365, 770
1532, 366, 767, 770
1533, 368, 367, 768
1534, 768, 367, 771
1535, 369, 368, 769
1536, 368, 768, 769
1537, 370, 369, 770
1538, 369, 769, 770
1539, 767, 370, 770
*ELEMENT, type=CPS3, ELSET=Surface42
1540, 89, 772, 90
1541, 92, 772, 89
1542, 90, 772, 91
1543, 91, 772, 92
*ELEMENT, type=CPS3, ELSET=Surface43
1544, 93, 94, 773
1545, 371, 93, 773
1546, 94, 373, 774
1547, 773, 94, 774
1548, 96, 95, 773
1549, 95, 372, 773
1550, 374, 96, 774
1551, 96, 773, 774
1552, 372, 371, 773
1553, 373, 374, 774
*ELEMENT, type=CPS3, ELSET=Surface44
1554, 94, 93, 775
1555, 93, 376, 775
1556, 378, 94, 776
1557, 94, 775, 776
1558, 95, 96, 775
1559, 375, 95, 775
1560, 96, 377, 776
1561, 775, 96, 776
1562, 376, 375, 775
1563, 377, 378, 776
*ELEMENT, type=CPS3, ELSET=Surface45
1564, 378, 97, 94
1565, 96, 98, 377
1566, 380, 97, 378
1567, 98, 379, 377
1568, 377, 379, 378
1569, 379, 380, 378
*ELEMENT, type=CPS3, ELSET=Surface46
1570, 94, 97, 373
1571, 374, 98, 96
1572, 97, 381, 373
1573, 382, 98, 374
1574, 373, 382, 374
1575, 381, 382, 373
*ELEMENT, type=CPS3, ELSET=Surface47
1576, 99, 100, 777
1577, 383, 99, 778
1578, 99, 777, 778
1579, 100, 385, 777
1580, 102, 101, 777
1581, 101, 384, 778
1582, 777, 101, 778
1583, 386, 102, 777
1584, 384, 383, 778
1585, 385, 386, 777
*ELEMENT, type=CPS3, ELSET=Surface48
1586, 100, 99, 779
1587, 99, 388, 780
1588, 779, 99, 780
1589, 390, 100, 779
1590, 101, 102, 779
1591, 387, 101, 780
1592, 101, 779, 780
1593, 102, 389, 779
1594, 388, 387, 780
1595, 389, 390, 779
*ELEMENT, type=CPS3, ELSET=Surface49
1596, 390, 103, 100
1597, 104, 391, 102
1598, 102, 391, 389
1599, 392, 103, 390
1600, 389, 391, 390
1601, 391, 392, 390
*ELEMENT, type=CPS3, ELSET=Surface50
1602, 103, 393, 100
1603, 100, 393, 385
1604, 386, 104, 102
1605, 394, 104, 386
1606, 385, 393, 386
1607, 393, 394, 386
*ELEMENT, type=CPS3, ELSET=Surface51
1608, 3, 784, 149
1609, 400, 784, 3
1610, 149, 785, 4
1611, 4, 785, 397
1612, 395, 783, 105
1613, 105, 783, 401
1614, 106, 783, 398
1615, 401, 783, 106
1616, 784, 785, 149
1617, 396, 781, 395
1618, 781, 783, 395
1619, 397, 782, 396
1620, 396, 782, 781
1621, 397, 784, 782
1622, 397, 785, 784
1623, 398, 781, 399
1624, 398, 783, 781
1625, 399, 782, 400
1626, 781, 782, 399
1627, 782, 784, 400
*ELEMENT, type=CPS3, ELSET=Surface52
1628, 105, 787, 108
1629, 401, 787, 105
1630, 107, 786, 106
1631, 106, 786, 401
1632, 402, 786, 107
1633, 108, 787, 402
1634, 786, 787, 401
1635, 402, 787, 786
*ELEMENT, type=CPS3, ELSET=Surface53
1636, 36, 788, 109
1637, 228, 788, 36
1638, 110, 789, 37
1639, 37, 789, 228
1640, 109, 788, 403
1641, 403, 789, 110
1642, 403, 788, 228
1643, 228, 789, 403
*ELEMENT, type=CPS3, ELSET=Surface54
1644, 107, 794, 402
1645, 411, 794, 107
1646, 402, 796, 108
1647, 108, 796, 407
1648, 404, 795, 111
1649, 111, 795, 412
1650, 112, 793, 408
1651, 412, 793, 112
1652, 794, 796, 402
1653, 405, 790, 404
1654, 790, 795, 404
1655, 406, 792, 405
1656, 405, 792, 790
1657, 407, 791, 406
1658, 791, 792, 406
1659, 407, 796, 791
1660, 408, 790, 409
1661, 408, 793, 790
1662, 409, 792, 410
1663, 790, 792, 409
1664, 410, 791, 411
1665, 410, 792, 791
1666, 791, 794, 411
1667, 412, 795, 793
1668, 793, 795, 790
1669, 791, 796, 794
*ELEMENT, type=CPS3, ELSET=Surface55
1670, 112, 109, 797
1671, 109, 403, 797
1672, 110, 111, 798
1673, 403, 110, 798
1674, 111, 412, 798
1675, 412, 112, 797
1676, 797, 403, 798
1677, 412, 797, 798
*ELEMENT, type=CPS3, ELSET=Surface56
1678, 114, 799, 39
1679, 39, 799, 234
1680, 42, 800, 113
1681, 234, 800, 42
1682, 113, 800, 413
1683, 413, 799, 114
1684, 234, 799, 413
1685, 413, 800, 234
*ELEMENT, type=CPS3, ELSET=Surface57
1686, 113, 802, 116
1687, 413, 802, 113
1688, 115, 801, 114
1689, 114, 801, 413
1690, 414, 801, 115
1691, 116, 802, 414
1692, 801, 802, 413
1693, 414, 802, 801
*ELEMENT, type=CPS3, ELSET=Surface58
1694, 81, 805, 338
1695, 418, 805, 81
1696, 338, 805, 82
1697, 82, 805, 415
1698, 417, 806, 117
1699, 117, 806, 421
1700, 118, 807, 420
1701, 421, 807, 118
1702, 415, 803, 416
1703, 415, 805, 803
1704, 416, 804, 417
1705, 803, 804, 416
1706, 804, 806, 417
1707, 419, 803, 418
1708, 803, 805, 418
1709, 420, 804, 419
1710, 419, 804, 803
1711, 420, 806, 804
1712, 420, 807, 806
1713, 806, 807, 421
*ELEMENT, type=CPS3, ELSET=Surface59
1714, 115, 813, 414
1715, 429, 813, 115
1716, 414, 812, 116
1717, 116, 812, 425
1718, 422, 814, 119
1719, 119, 814, 430
1720, 120, 811, 426
1721, 430, 811, 120
1722, 414, 813, 812
1723, 423, 808, 422
1724, 808, 814, 422
1725, 424, 810, 423
1726, 423, 810, 808
1727, 425, 809, 424
1728, 809, 810, 424
1729, 425, 812, 809
1730, 426, 808, 427
1731, 426, 811, 808
1732, 427, 810, 428
1733, 808, 810, 427
1734, 428, 809, 429
1735, 428, 810, 809
1736, 809, 813, 429
1737, 430, 814, 811
1738, 811, 814, 808
1739, 812, 813, 809
*ELEMENT, type=CPS3, ELSET=Surface60
1740, 120, 117, 815
1741, 117, 421, 815
1742, 118, 119, 816
1743, 421, 118, 816
1744, 119, 430, 816
1745, 430, 120, 815
1746, 815, 421, 816
1747, 430, 815, 816
*ELEMENT, type=CPS3, ELSET=Surface61
1748, 232, 821, 40
1749, 40, 821, 431
1750, 41, 821, 232
1751, 435, 821, 41
1752, 434, 820, 121
1753, 121, 820, 439
1754, 122, 822, 438
1755, 439, 822, 122
1756, 431, 818, 432
1757, 431, 821, 818
1758, 432, 817, 433
1759, 432, 818, 817
1760, 433, 819, 434
1761, 817, 819, 433
1762, 819, 820, 434
1763, 436, 818, 435
1764, 818, 821, 435
1765, 437, 817, 436
1766, 817, 818, 436
1767, 438, 819, 437
1768, 437, 819, 817
1769, 438, 822, 819
1770, 820, 822, 439
1771, 819, 822, 820
*ELEMENT, type=CPS3, ELSET=Surface62
1772, 121, 823, 123
1773, 439, 823, 121
1774, 124, 824, 122
1775, 122, 824, 439
1776, 123, 823, 440
1777, 440, 824, 124
1778, 439, 824, 823
1779, 823, 824, 440
*ELEMENT, type=CPS3, ELSET=Surface63
1780, 230, 35, 829
1781, 35, 446, 829
1782, 38, 230, 829
1783, 442, 38, 829
1784, 441, 125, 830
1785, 125, 445, 830
1786, 126, 441, 828
1787, 449, 126, 828
1788, 828, 441, 830
1789, 443, 442, 826
1790, 826, 442, 829
1791, 444, 443, 825
1792, 825, 443, 826
1793, 445, 444, 827
1794, 444, 825, 827
1795, 445, 827, 830
1796, 446, 447, 826
1797, 446, 826, 829
1798, 447, 448, 825
1799, 447, 825, 826
1800, 448, 449, 827
1801, 825, 448, 827
1802, 827, 449, 828
1803, 827, 828, 830
*ELEMENT, type=CPS3, ELSET=Surface64
1804, 88, 862, 87
1805, 87, 862, 452
1806, 472, 862, 88
1807, 92, 861, 91
1808, 91, 861, 453
1809, 473, 861, 92
1810, 123, 858, 128
1811, 440, 832, 123
1812, 832, 856, 123
1813, 856, 858, 123
1814, 124, 860, 440
1815, 476, 860, 124
1816, 127, 857, 130
1817, 450, 864, 127
1818, 127, 864, 857
1819, 128, 863, 475
1820, 858, 863, 128
1821, 129, 859, 487
1822, 488, 859, 129
1823, 130, 831, 488
1824, 130, 855, 831
1825, 130, 857, 855
1826, 440, 860, 832
1827, 471, 450, 451
1828, 471, 864, 450
1829, 451, 452, 472
1830, 471, 451, 472
1831, 452, 862, 472
1832, 474, 454, 453
1833, 474, 453, 473
1834, 453, 861, 473
1835, 454, 863, 455
1836, 475, 454, 474
1837, 475, 863, 454
1838, 455, 858, 456
1839, 455, 863, 858
1840, 456, 856, 457
1841, 456, 858, 856
1842, 457, 843, 458
1843, 457, 856, 843
1844, 458, 845, 459
1845, 843, 845, 458
1846, 459, 841, 460
1847, 459, 845, 841
1848, 460, 851, 461
1849, 841, 851, 460
1850, 461, 839, 462
1851, 461, 851, 839
1852, 462, 854, 463
1853, 839, 854, 462
1854, 463, 838, 464
1855, 463, 854, 838
1856, 464, 850, 465
1857, 838, 850, 464
1858, 465, 840, 466
1859, 465, 850, 840
1860, 466, 844, 467
1861, 840, 844, 466
1862, 467, 842, 468
1863, 467, 844, 842
1864, 468, 855, 469
1865, 842, 855, 468
1866, 469, 857, 470
1867, 855, 857, 469
1868, 470, 864, 471
1869, 857, 864, 470
1870, 477, 847, 476
1871, 847, 860, 476
1872, 478, 837, 477
1873, 837, 847, 477
1874, 479, 849, 478
1875, 478, 849, 837
1876, 480, 835, 479
1877, 835, 849, 479
1878, 481, 853, 480
1879, 480, 853, 835
1880, 482, 833, 481
1881, 833, 853, 481
1882, 483, 852, 482
1883, 482, 852, 833
1884, 484, 834, 483
1885, 834, 852, 483
1886, 485, 848, 484
1887, 484, 848, 834
1888, 486, 836, 485
1889, 836, 848, 485
1890, 487, 846, 486
1891, 486, 846, 836
1892, 487, 859, 846
1893, 831, 859, 488
1894, 842, 846, 831
1895, 831, 855, 842
1896, 846, 859, 831
1897, 832, 847, 843
1898, 843, 856, 832
1899, 832, 860, 847
1900, 852, 854, 833
1901, 833, 854, 853
1902, 834, 850, 838
1903, 838, 852, 834
1904, 848, 850, 834
1905, 839, 851, 835
1906, 835, 853, 839
1907, 835, 851, 849
1908, 836, 844, 840
1909, 840, 848, 836
1910, 836, 846, 844
1911, 841, 845, 837
1912, 837, 849, 841
1913, 845, 847, 837
1914, 838, 854, 852
1915, 853, 854, 839
1916, 840, 850, 848
1917, 849, 851, 841
1918, 844, 846, 842
1919, 843, 847, 845
*ELEMENT, type=CPS3, ELSET=Surface65
1920, 155, 4, 1064
1921, 4, 397, 1064
1922, 5, 150, 904
1923, 167, 5, 879
1924, 879, 5, 904
1925, 7, 167, 899
1926, 179, 7, 867
1927, 867, 7, 1057
1928, 7, 899, 1057
1929, 12, 184, 868
1930, 187, 12, 898
1931, 12, 868, 1058
1932, 898, 12, 1058
1933, 13, 187, 878
1934, 337, 13, 885
1935, 13, 878, 885
1936, 23, 196, 948
1937, 202, 23, 1019
1938, 23, 948, 949
1939, 23, 949, 1019
1940, 197, 25, 980
1941, 25, 201, 866
1942, 25, 866, 869
1943, 25, 869, 980
1944, 27, 206, 981
1945, 212, 27, 865
1946, 865, 27, 871
1947, 871, 27, 981
1948, 207, 29, 950
1949, 29, 211, 1021
1950, 950, 29, 951
1951, 951, 29, 1021
1952, 110, 37, 903
1953, 37, 229, 919
1954, 903, 37, 919
1955, 229, 38, 877
1956, 38, 442, 1056
1957, 877, 38, 884
1958, 884, 38, 1056
1959, 41, 233, 876
1960, 435, 41, 1059
1961, 41, 876, 906
1962, 41, 906, 1059
1963, 42, 113, 902
1964, 233, 42, 918
1965, 42, 902, 918
1966, 71, 299, 913
1967, 308, 71, 921
1968, 71, 913, 1035
1969, 921, 71, 1035
1970, 300, 72, 880
1971, 72, 307, 1052
1972, 880, 72, 900
1973, 900, 72, 1052
1974, 75, 311, 920
1975, 320, 75, 912
1976, 912, 75, 1036
1977, 75, 920, 1036
1978, 312, 76, 1051
1979, 76, 319, 882
1980, 76, 882, 901
1981, 76, 901, 1051
1982, 81, 332, 1065
1983, 418, 81, 1065
1984, 105, 108, 911
1985, 395, 105, 1045
1986, 105, 911, 1045
1987, 108, 407, 911
1988, 111, 110, 1062
1989, 110, 903, 1062
1990, 404, 111, 1062
1991, 113, 116, 1063
1992, 902, 113, 1063
1993, 116, 425, 1063
1994, 119, 118, 910
1995, 118, 420, 1044
1996, 910, 118, 1044
1997, 422, 119, 910
1998, 124, 122, 953
1999, 122, 438, 953
2000, 476, 124, 953
2001, 125, 129, 952
2002, 445, 125, 952
2003, 129, 487, 952
2004, 150, 151, 1060
2005, 904, 150, 987
2006, 987, 150, 1060
2007, 151, 152, 991
2008, 151, 991, 1060
2009, 152, 153, 964
2010, 152, 964, 991
2011, 153, 154, 1000
2012, 964, 153, 1000
2013, 154, 155, 1026
2014, 1000, 154, 1015
2015, 1015, 154, 1026
2016, 1026, 155, 1064
2017, 167, 879, 1066
2018, 899, 167, 1066
2019, 180, 179, 965
2020, 179, 867, 965
2021, 181, 180, 890
2022, 890, 180, 965
2023, 182, 181, 977
2024, 181, 890, 977
2025, 183, 182, 891
2026, 891, 182, 977
2027, 184, 183, 969
2028, 183, 891, 969
2029, 868, 184, 969
2030, 878, 187, 1067
2031, 187, 898, 1067
2032, 196, 197, 982
2033, 948, 196, 1011
2034, 196, 982, 1011
2035, 197, 980, 1024
2036, 982, 197, 1024
2037, 201, 202, 888
2038, 866, 201, 1004
2039, 201, 888, 1004
2040, 888, 202, 889
2041, 889, 202, 1019
2042, 206, 207, 983
2043, 981, 206, 1025
2044, 206, 983, 1025
2045, 207, 950, 1012
2046, 983, 207, 1012
2047, 211, 212, 886
2048, 211, 886, 887
2049, 211, 887, 1021
2050, 212, 865, 1003
2051, 886, 212, 1003
2052, 229, 877, 946
2053, 919, 229, 946
2054, 876, 233, 947
2055, 233, 918, 947
2056, 299, 300, 1006
2057, 913, 299, 942
2058, 942, 299, 1006
2059, 300, 880, 881
2060, 300, 881, 1006
2061, 307, 308, 1033
2062, 307, 1033, 1048
2063, 307, 1048, 1052
2064, 308, 921, 1042
2065, 1033, 308, 1042
2066, 311, 312, 1034
2067, 920, 311, 1043
2068, 311, 1034, 1043
2069, 1034, 312, 1047
2070, 1047, 312, 1051
2071, 319, 320, 1005
2072, 882, 319, 883
2073, 883, 319, 1005
2074, 320, 912, 943
2075, 320, 943, 1005
2076, 332, 333, 1027
2077, 332, 1027, 1065
2078, 333, 334, 1001
2079, 333, 1001, 1016
2080, 333, 1016, 1027
2081, 334, 335, 963
2082, 334, 963, 1001
2083, 335, 336, 992
2084, 963, 335, 992
2085, 336, 337, 1029
2086, 992, 336, 1029
2087, 337, 885, 985
2088, 337, 985, 1029
2089, 396, 395, 1022
2090, 1022, 395, 1045
2091, 397, 396, 976
2092, 976, 396, 1070
2093, 396, 1022, 1070
2094, 397, 976, 1064
2095, 405, 404, 995
2096, 995, 404, 996
2097, 996, 404, 1062
2098, 406, 405, 983
2099, 983, 405, 1025
2100, 405, 995, 1025
2101, 407, 406, 1012
2102, 406, 983, 1012
2103, 911, 407, 1012
2104, 419, 418, 975
2105, 975, 418, 1065
2106, 420, 419, 1020
2107, 419, 975, 1020
2108, 420, 1020, 1044
2109, 423, 422, 1011
2110, 422, 910, 1011
2111, 424, 423, 982
2112, 982, 423, 1011
2113, 425, 424, 993
2114, 424, 982, 1024
2115, 993, 424, 1024
2116, 425, 993, 994
2117, 425, 994, 1063
2118, 436, 435, 1009
2119, 1009, 435, 1059
2120, 437, 436, 1043
2121, 436, 1009, 1043
2122, 438, 437, 1047
2123, 1034, 437, 1043
2124, 437, 1034, 1047
2125, 953, 438, 998
2126, 998, 438, 1047
2127, 442, 443, 1010
2128, 442, 1010, 1056
2129, 443, 444, 1042
2130, 1010, 443, 1042
2131, 444, 445, 1048
2132, 444, 1033, 1042
2133, 1033, 444, 1048
2134, 445, 952, 999
2135, 445, 999, 1048
2136, 477, 476, 1040
2137, 476, 953, 957
2138, 476, 957, 1040
2139, 478, 477, 990
2140, 990, 477, 1040
2141, 479, 478, 1013
2142, 478, 990, 1013
2143, 480, 479, 875
2144, 875, 479, 1013
2145, 481, 480, 1023
2146, 480, 875, 1023
2147, 482, 481, 873
2148, 873, 481, 1023
2149, 483, 482, 1028
2150, 482, 873, 1028
2151, 484, 483, 874
2152, 874, 483, 1028
2153, 485, 484, 1014
2154, 484, 874, 1014
2155, 486, 485, 989
2156, 989, 485, 1014
2157, 487, 486, 1041
2158, 486, 989, 1041
2159, 952, 487, 956
2160, 956, 487, 1041
2161, 865, 871, 872
2162, 865, 872, 894
2163, 865, 894, 1003
2164, 869, 866, 870
2165, 870, 866, 892
2166, 892, 866, 1004
2167, 965, 867, 1031
2168, 1031, 867, 1039
2169, 1039, 867, 1057
2170, 868, 969, 1032
2171, 868, 1032, 1038
2172, 868, 1038, 1058
2173, 869, 870, 896
2174, 869, 896, 937
2175, 869, 937, 980
2176, 870, 892, 893
2177, 870, 893, 1061
2178, 896, 870, 1061
2179, 872, 871, 897
2180, 897, 871, 936
2181, 936, 871, 981
2182, 894, 872, 895
2183, 895, 872, 1055
2184, 872, 897, 1055
2185, 968, 873, 1017
2186, 873, 968, 1028
2187, 873, 972, 1017
2188, 972, 873, 1023
2189, 968, 874, 1028
2190, 874, 968, 1050
2191, 1014, 874, 1050
2192, 875, 972, 1023
2193, 972, 875, 1049
2194, 875, 1013, 1049
2195, 906, 876, 909
2196, 909, 876, 1018
2197, 876, 947, 1018
2198, 877, 884, 908
2199, 877, 908, 958
2200, 946, 877, 958
2201, 885, 878, 907
2202, 907, 878, 961
2203, 961, 878, 1067
2204, 879, 904, 905
2205, 879, 905, 959
2206, 879, 959, 1066
2207, 881, 880, 914
2208, 880, 900, 1053
2209, 914, 880, 1053
2210, 881, 914, 915
2211, 881, 915, 926
2212, 881, 926, 1006
2213, 882, 883, 916
2214, 901, 882, 1054
2215, 882, 916, 1054
2216, 916, 883, 917
2217, 917, 883, 928
2218, 928, 883, 1005
2219, 908, 884, 986
2220, 884, 974, 986
2221, 974, 884, 1056
2222, 885, 907, 984
2223, 885, 984, 985
2224, 887, 886, 922
2225, 922, 886, 944
2226, 944, 886, 1003
2227, 887, 922, 923
2228, 887, 923, 938
2229, 887, 938, 1021
2230, 888, 889, 924
2231, 888, 924, 945
2232, 888, 945, 1004
2233, 924, 889, 925
2234, 925, 889, 939
2235, 939, 889, 1019
2236, 890, 965, 966
2237, 890, 966, 967
2238, 890, 967, 977
2239, 969, 891, 970
2240, 970, 891, 971
2241, 971, 891, 977
2242, 893, 892, 932
2243, 932, 892, 945
2244, 945, 892, 1004
2245, 893, 932, 933
2246, 893, 933, 1037
2247, 893, 1037, 1061
2248, 894, 895, 934
2249, 894, 934, 944
2250, 894, 944, 1003
2251, 934, 895, 935
2252, 935, 895, 1030
2253, 1030, 895, 1055
2254, 937, 896, 955
2255, 955, 896, 988
2256, 988, 896, 1061
2257, 897, 936, 954
2258, 897, 954, 1002
2259, 897, 1002, 1055
2260, 978, 898, 1008
2261, 898, 978, 1067
2262, 1008, 898, 1058
2263, 899, 979, 1007
2264, 979, 899, 1066
2265, 899, 1007, 1057
2266, 900, 952, 956
2267, 952, 900, 999
2268, 900, 956, 1053
2269, 999, 900, 1052
2270, 953, 901, 957
2271, 901, 953, 998
2272, 957, 901, 1054
2273, 901, 998, 1051
2274, 918, 902, 955
2275, 955, 902, 1063
2276, 903, 919, 954
2277, 903, 954, 1062
2278, 905, 904, 986
2279, 986, 904, 987
2280, 959, 905, 960
2281, 960, 905, 974
2282, 974, 905, 986
2283, 906, 909, 984
2284, 973, 906, 984
2285, 906, 973, 1059
2286, 907, 961, 962
2287, 907, 962, 973
2288, 907, 973, 984
2289, 958, 908, 997
2290, 908, 986, 987
2291, 908, 987, 997
2292, 984, 909, 985
2293, 985, 909, 1046
2294, 909, 1018, 1046
2295, 910, 948, 1011
2296, 948, 910, 1069
2297, 910, 1044, 1069
2298, 950, 911, 1012
2299, 911, 950, 1068
2300, 1045, 911, 1068
2301, 943, 912, 978
2302, 912, 961, 978
2303, 961, 912, 1036
2304, 913, 942, 979
2305, 959, 913, 979
2306, 913, 959, 1035
2307, 915, 914, 989
2308, 989, 914, 1041
2309, 1041, 914, 1053
2310, 926, 915, 927
2311, 927, 915, 931
2312, 931, 915, 989
2313, 916, 917, 990
2314, 916, 990, 1040
2315, 916, 1040, 1054
2316, 917, 928, 929
2317, 917, 929, 930
2318, 917, 930, 990
2319, 947, 918, 988
2320, 918, 955, 988
2321, 919, 946, 1002
2322, 954, 919, 1002
2323, 962, 920, 1009
2324, 920, 962, 1036
2325, 1009, 920, 1043
2326, 921, 960, 1010
2327, 960, 921, 1035
2328, 921, 1010, 1042
2329, 923, 922, 1015
2330, 922, 944, 1000
2331, 922, 1000, 1015
2332, 938, 923, 976
2333, 976, 923, 1026
2334, 923, 1015, 1026
2335, 924, 925, 1016
2336, 945, 924, 1001
2337, 1001, 924, 1016
2338, 925, 939, 975
2339, 925, 975, 1027
2340, 1016, 925, 1027
2341, 926, 927, 1039
2342, 1006, 926, 1007
2343, 1007, 926, 1039
2344, 927, 931, 941
2345, 927, 941, 1031
2346, 927, 1031, 1039
2347, 929, 928, 1038
2348, 928, 1005, 1008
2349, 928, 1008, 1038
2350, 930, 929, 940
2351, 940, 929, 1032
2352, 1032, 929, 1038
2353, 930, 940, 1013
2354, 990, 930, 1013
2355, 941, 931, 1014
2356, 931, 989, 1014
2357, 933, 932, 992
2358, 932, 945, 963
2359, 932, 963, 992
2360, 933, 992, 1029
2361, 933, 1018, 1037
2362, 1018, 933, 1046
2363, 933, 1029, 1046
2364, 934, 935, 991
2365, 944, 934, 964
2366, 964, 934, 991
2367, 935, 958, 997
2368, 958, 935, 1030
2369, 991, 935, 1060
2370, 935, 997, 1060
2371, 954, 936, 996
2372, 936, 981, 995
2373, 936, 995, 996
2374, 937, 955, 994
2375, 980, 937, 993
2376, 993, 937, 994
2377, 938, 951, 1021
2378, 951, 938, 1022
2379, 938, 976, 1070
2380, 1022, 938, 1070
2381, 949, 939, 1019
2382, 939, 949, 1020
2383, 975, 939, 1020
2384, 970, 940, 1032
2385, 940, 970, 1049
2386, 1013, 940, 1049
2387, 941, 966, 1031
2388, 966, 941, 1050
2389, 941, 1014, 1050
2390, 979, 942, 1007
2391, 942, 1006, 1007
2392, 943, 978, 1008
2393, 1005, 943, 1008
2394, 944, 964, 1000
2395, 963, 945, 1001
2396, 946, 958, 1030
2397, 1002, 946, 1030
2398, 947, 988, 1037
2399, 1018, 947, 1037
2400, 949, 948, 1069
2401, 1020, 949, 1069
2402, 950, 951, 1068
2403, 951, 1022, 1068
2404, 954, 996, 1062
2405, 994, 955, 1063
2406, 956, 1041, 1053
2407, 1040, 957, 1054
2408, 959, 960, 1035
2409, 959, 979, 1066
2410, 960, 974, 1010
2411, 962, 961, 1036
2412, 978, 961, 1067
2413, 973, 962, 1009
2414, 966, 965, 1031
2415, 967, 966, 968
2416, 968, 966, 1050
2417, 967, 968, 1017
2418, 967, 971, 977
2419, 971, 967, 1017
2420, 969, 970, 1032
2421, 970, 971, 972
2422, 970, 972, 1049
2423, 972, 971, 1017
2424, 973, 1009, 1059
2425, 1010, 974, 1056
2426, 1027, 975, 1065
2427, 976, 1026, 1064
2428, 980, 993, 1024
2429, 995, 981, 1025
2430, 1029, 985, 1046
2431, 997, 987, 1060
2432, 1037, 988, 1061
2433, 998, 1047, 1051
2434, 1048, 999, 1052
2435, 1002, 1030, 1055
2436, 1007, 1039, 1057
2437, 1038, 1008, 1058
2438, 1044, 1020, 1069
2439, 1022, 1045, 1068
*ELEMENT, type=CPS3, ELSET=Surface66
2440, 129, 125, 1072
2441, 125, 441, 1072
2442, 126, 130, 1071
2443, 441, 126, 1071
2444, 488, 129, 1072
2445, 130, 488, 1071
2446, 441, 1071, 1072
2447, 1071, 488, 1072
*ELEMENT, type=CPS3, ELSET=Surface67
2448, 15, 1073, 18
2449, 490, 1073, 15
2450, 18, 1073, 489
2451, 131, 1074, 132
2452, 489, 1074, 131
2453, 132, 1074, 490
2454, 1073, 1074, 489
2455, 490, 1074, 1073
*ELEMENT, type=CPS3, ELSET=Surface68
2456, 132, 1075, 131
2457, 131, 1075, 134
2458, 133, 1075, 132
2459, 134, 1075, 133
*ELEMENT, type=CPS3, ELSET=Surface69
2460, 134, 133, 1076
2461, 133, 500, 1076
2462, 491, 134, 1076
2463, 136, 135, 1077
2464, 135, 499, 1077
2465, 508, 136, 1077
2466, 492, 491, 1078
2467, 500, 491, 1076
2468, 491, 500, 1078
2469, 493, 492, 1079
2470, 501, 492, 1078
2471, 492, 501, 1079
2472, 494, 493, 1080
2473, 502, 493, 1079
2474, 493, 502, 1080
2475, 495, 494, 1081
2476, 503, 494, 1080
2477, 494, 503, 1081
2478, 496, 495, 1082
2479, 504, 495, 1081
2480, 495, 504, 1082
2481, 497, 496, 1083
2482, 505, 496, 1082
2483, 496, 505, 1083
2484, 498, 497, 1084
2485, 506, 497, 1083
2486, 497, 506, 1084
2487, 499, 498, 1085
2488, 507, 498, 1084
2489, 498, 507, 1085
2490, 499, 508, 1077
2491, 508, 499, 1085
2492, 500, 501, 1078
2493, 501, 502, 1079
2494, 502, 503, 1080
2495, 503, 504, 1081
2496, 504, 505, 1082
2497, 505, 506, 1083
2498, 506, 507, 1084
2499, 507, 508, 1085
*ELEMENT, type=CPS3, ELSET=Surface70
2500, 135, 136, 1086
2501, 137, 135, 1086
2502, 136, 138, 1086
2503, 138, 137, 1086
*ELEMENT, type=CPS3, ELSET=Surface71
2504, 21, 1087, 20
2505, 20, 1087, 509
2506, 510, 1087, 21
2507, 139, 1088, 140
2508, 509, 1088, 139
2509, 140, 1088, 510
2510, 1087, 1088, 509
2511, 510, 1088, 1087
*ELEMENT, type=CPS3, ELSET=Surface72
2512, 140, 1089, 139
2513, 139, 1089, 141
2514, 142, 1089, 140
2515, 141, 1089, 142
*ELEMENT, type=CPS3, ELSET=Surface73
2516, 137, 138, 1100
2517, 511, 137, 1100
2518, 138, 537, 1100
2519, 144, 143, 1116
2520, 143, 536, 1116
2521, 562, 144, 1116
2522, 512, 511, 1104
2523, 511, 1100, 1104
2524, 513, 512, 1102
2525, 1102, 512, 1104
2526, 514, 513, 1103
2527, 513, 1102, 1103
2528, 515, 514, 1101
2529, 1101, 514, 1103
2530, 516, 515, 1105
2531, 515, 1101, 1105
2532, 517, 516, 1106
2533, 516, 1105, 1106
2534, 518, 517, 1090
2535, 1090, 517, 1106
2536, 519, 518, 1098
2537, 518, 1090, 1098
2538, 520, 519, 1099
2539, 519, 1098, 1099
2540, 521, 520, 1093
2541, 1093, 520, 1099
2542, 522, 521, 1094
2543, 521, 1093, 1094
2544, 523, 522, 1091
2545, 1091, 522, 1094
2546, 524, 523, 1095
2547, 523, 1091, 1095
2548, 525, 524, 1096
2549, 524, 1095, 1096
2550, 526, 525, 1097
2551, 525, 1096, 1097
2552, 527, 526, 1092
2553, 1092, 526, 1097
2554, 528, 527, 1112
2555, 527, 1092, 1112
2556, 529, 528, 1107
2557, 1107, 528, 1112
2558, 530, 529, 1114
2559, 529, 1107, 1114
2560, 531, 530, 1109
2561, 1109, 530, 1114
2562, 532, 531, 1110
2563, 531, 1109, 1110
2564, 533, 532, 1111
2565, 532, 1110, 1111
2566, 534, 533, 1115
2567, 533, 1111, 1115
2568, 535, 534, 1113
2569, 1113, 534, 1115
2570, 536, 535, 1108
2571, 1108, 535, 1113
2572, 536, 1108, 1116
2573, 537, 538, 1104
2574, 1100, 537, 1104
2575, 538, 539, 1102
2576, 538, 1102, 1104
2577, 539, 540, 1103
2578, 1102, 539, 1103
2579, 540, 541, 1101
2580, 540, 1101, 1103
2581, 541, 542, 1105
2582, 1101, 541, 1105
2583, 542, 543, 1106
2584, 1105, 542, 1106
2585, 543, 544, 1090
2586, 543, 1090, 1106
2587, 544, 545, 1098
2588, 1090, 544, 1098
2589, 545, 546, 1099
2590, 1098, 545, 1099
2591, 546, 547, 1093
2592, 546, 1093, 1099
2593, 547, 548, 1094
2594, 1093, 547, 1094
2595, 548, 549, 1091
2596, 548, 1091, 1094
2597, 549, 550, 1095
2598, 1091, 549, 1095
2599, 550, 551, 1096
2600, 1095, 550, 1096
2601, 551, 552, 1097
2602, 1096, 551, 1097
2603, 552, 553, 1092
2604, 552, 1092, 1097
2605, 553, 554, 1112
2606, 1092, 553, 1112
2607, 554, 555, 1107
2608, 554, 1107, 1112
2609, 555, 556, 1114
2610, 1107, 555, 1114
2611, 556, 557, 1109
2612, 556, 1109, 1114
2613, 557, 558, 1110
2614, 1109, 557, 1110
2615, 558, 559, 1111
2616, 1110, 558, 1111
2617, 559, 560, 1115
2618, 1111, 559, 1115
2619, 560, 561, 1113
2620, 560, 1113, 1115
2621, 561, 562, 1108
2622, 561, 1108, 1113
2623, 1108, 562, 1116
*ELEMENT, type=CPS3, ELSET=Surface74
2624, 142, 1117, 141
2625, 141, 1117, 563
2626, 572, 1117, 142
2627, 145, 1118, 146
2628, 571, 1118, 145
2629, 146, 1118, 580
2630, 563, 1119, 564
2631, 563, 1117, 572
2632, 572, 1119, 563
2633, 564, 1120, 565
2634, 564, 1119, 573
2635, 573, 1120, 564
2636, 565, 1121, 566
2637, 565, 1120, 574
2638, 574, 1121, 565
2639, 566, 1122, 567
2640, 566, 1121, 575
2641, 575, 1122, 566
2642, 567, 1123, 568
2643, 567, 1122, 576
2644, 576, 1123, 567
2645, 568, 1124, 569
2646, 568, 1123, 577
2647, 577, 1124, 568
2648, 569, 1125, 570
2649, 569, 1124, 578
2650, 578, 1125, 569
2651, 570, 1126, 571
2652, 570, 1125, 579
2653, 579, 1126, 570
2654, 580, 1118, 571
2655, 571, 1126, 580
2656, 573, 1119, 572
2657, 574, 1120, 573
2658, 575, 1121, 574
2659, 576, 1122, 575
2660, 577, 1123, 576
2661, 578, 1124, 577
2662, 579, 1125, 578
2663, 580, 1126, 579
*ELEMENT, type=CPS3, ELSET=Surface75
2664, 166, 1141, 2
2665, 2, 1793, 172
2666, 1141, 1283, 2
2667, 1283, 1793, 2
2668, 6, 1261, 158
2669, 168, 1312, 6
2670, 6, 1751, 1261
2671, 1312, 1751, 6
2672, 8, 1406, 168
2673, 173, 1174, 8
2674, 1174, 1761, 8
2675, 8, 1761, 1406
2676, 172, 1316, 10
2677, 10, 1788, 348
2678, 1316, 1366, 10
2679, 1366, 1788, 10
2680, 11, 1173, 178
2681, 188, 1407, 11
2682, 11, 1762, 1173
2683, 1407, 1762, 11
2684, 14, 1311, 188
2685, 331, 1260, 14
2686, 1260, 1752, 14
2687, 14, 1752, 1311
2688, 192, 1243, 17
2689, 17, 1138, 359
2690, 17, 1720, 1138
2691, 1243, 1720, 17
2692, 18, 1608, 192
2693, 489, 1612, 18
2694, 1566, 1608, 18
2695, 18, 1612, 1566
2696, 194, 1535, 21
2697, 21, 1763, 510
2698, 1535, 1536, 21
2699, 1536, 1763, 21
2700, 22, 1765, 194
2701, 366, 1137, 22
2702, 1137, 1242, 22
2703, 1242, 1765, 22
2704, 236, 1160, 44
2705, 44, 1638, 239
2706, 1160, 1235, 44
2707, 1235, 1638, 44
2708, 45, 1766, 235
2709, 240, 1410, 45
2710, 1410, 1763, 45
2711, 45, 1763, 1536
2712, 1536, 1766, 45
2713, 244, 1643, 48
2714, 48, 1507, 247
2715, 48, 1644, 1507
2716, 1643, 1644, 48
2717, 49, 1562, 243
2718, 248, 1345, 49
2719, 1345, 1359, 49
2720, 1359, 1562, 49
2721, 252, 1426, 52
2722, 52, 1642, 255
2723, 1426, 1642, 52
2724, 53, 1344, 251
2725, 256, 1563, 53
2726, 53, 1360, 1344
2727, 53, 1563, 1360
2728, 260, 1637, 56
2729, 56, 1159, 263
2730, 56, 1227, 1159
2731, 56, 1637, 1227
2732, 57, 1409, 259
2733, 264, 1566, 57
2734, 57, 1612, 1409
2735, 1566, 1612, 57
2736, 268, 1128, 60
2737, 60, 1429, 271
2738, 1128, 1605, 60
2739, 60, 1605, 1429
2740, 61, 1665, 267
2741, 272, 1696, 61
2742, 453, 1665, 61
2743, 61, 1696, 453
2744, 276, 1430, 64
2745, 64, 1127, 279
2746, 64, 1604, 1127
2747, 1430, 1604, 64
2748, 65, 1697, 275
2749, 280, 1666, 65
2750, 65, 1666, 472
2751, 472, 1697, 65
2752, 286, 1693, 67
2753, 67, 1130, 288
2754, 67, 1201, 1130
2755, 67, 1693, 1201
2756, 68, 1686, 284
2757, 290, 1181, 68
2758, 1181, 1187, 68
2759, 1187, 1686, 68
2760, 294, 1129, 69
2761, 69, 1694, 296
2762, 1129, 1202, 69
2763, 1202, 1694, 69
2764, 70, 1182, 292
2765, 298, 1726, 70
2766, 70, 1189, 1182
2767, 70, 1726, 1189
2768, 304, 1264, 73
2769, 73, 1269, 309
2770, 1264, 1650, 73
2771, 73, 1650, 1269
2772, 74, 1289, 303
2773, 310, 1131, 74
2774, 1131, 1584, 74
2775, 74, 1584, 1289
2776, 316, 1268, 77
2777, 77, 1266, 321
2778, 77, 1651, 1266
2779, 1268, 1651, 77
2780, 78, 1132, 315
2781, 322, 1288, 78
2782, 78, 1585, 1132
2783, 1288, 1585, 78
2784, 80, 1142, 323
2785, 342, 1282, 80
2786, 80, 1282, 1142
2787, 84, 1317, 342
2788, 343, 1789, 84
2789, 84, 1367, 1317
2790, 84, 1789, 1367
2791, 86, 1697, 88
2792, 275, 1697, 86
2793, 86, 1746, 275
2794, 362, 1746, 86
2795, 88, 1697, 472
2796, 91, 1696, 90
2797, 90, 1778, 363
2798, 1696, 1778, 90
2799, 453, 1696, 91
2800, 380, 1133, 97
2801, 97, 1626, 381
2802, 1133, 1220, 97
2803, 1220, 1626, 97
2804, 98, 1135, 379
2805, 382, 1299, 98
2806, 98, 1654, 1135
2807, 1299, 1654, 98
2808, 392, 1625, 103
2809, 103, 1136, 393
2810, 103, 1228, 1136
2811, 103, 1625, 1228
2812, 104, 1300, 391
2813, 394, 1134, 104
2814, 1134, 1655, 104
2815, 104, 1655, 1300
2816, 134, 1724, 131
2817, 131, 1724, 489
2818, 491, 1546, 134
2819, 1546, 1724, 134
2820, 137, 1795, 135
2821, 135, 1565, 499
2822, 135, 1795, 1565
2823, 511, 1795, 137
2824, 140, 1723, 142
2825, 510, 1723, 140
2826, 142, 1547, 572
2827, 142, 1723, 1547
2828, 143, 1750, 536
2829, 581, 1323, 143
2830, 1323, 1750, 143
2831, 580, 1470, 146
2832, 146, 1718, 581
2833, 1470, 1718, 146
2834, 158, 1461, 159
2835, 1261, 1461, 158
2836, 159, 1347, 160
2837, 159, 1461, 1347
2838, 160, 1741, 161
2839, 1347, 1741, 160
2840, 161, 1447, 162
2841, 161, 1741, 1447
2842, 162, 1396, 163
2843, 162, 1447, 1396
2844, 163, 1508, 164
2845, 1396, 1508, 163
2846, 164, 1276, 165
2847, 164, 1508, 1276
2848, 165, 1504, 166
2849, 1276, 1504, 165
2850, 166, 1504, 1141
2851, 168, 1770, 1312
2852, 1406, 1770, 168
2853, 172, 1514, 1316
2854, 172, 1793, 1514
2855, 174, 1480, 173
2856, 173, 1480, 1174
2857, 175, 1275, 174
2858, 1275, 1480, 174
2859, 176, 1521, 175
2860, 175, 1521, 1275
2861, 177, 1274, 176
2862, 1274, 1521, 176
2863, 178, 1485, 177
2864, 177, 1485, 1274
2865, 1173, 1485, 178
2866, 1311, 1769, 188
2867, 188, 1769, 1407
2868, 192, 1291, 1243
2869, 192, 1608, 1291
2870, 194, 1776, 1535
2871, 1765, 1776, 194
2872, 235, 1179, 236
2873, 235, 1298, 1179
2874, 235, 1766, 1298
2875, 236, 1556, 1160
2876, 1179, 1556, 236
2877, 239, 1635, 240
2878, 239, 1636, 1635
2879, 239, 1638, 1636
2880, 240, 1547, 1410
2881, 240, 1635, 1547
2882, 243, 1199, 244
2883, 243, 1238, 1199
2884, 243, 1562, 1238
2885, 1199, 1414, 244
2886, 1414, 1643, 244
2887, 247, 1596, 248
2888, 247, 1507, 1470
2889, 1470, 1596, 247
2890, 248, 1668, 1345
2891, 1596, 1668, 248
2892, 251, 1639, 252
2893, 1344, 1597, 251
2894, 1597, 1639, 251
2895, 252, 1565, 1426
2896, 252, 1639, 1565
2897, 255, 1200, 256
2898, 255, 1413, 1200
2899, 255, 1642, 1413
2900, 1200, 1236, 256
2901, 1236, 1563, 256
2902, 259, 1633, 260
2903, 1409, 1546, 259
2904, 1546, 1633, 259
2905, 1633, 1634, 260
2906, 1634, 1637, 260
2907, 263, 1180, 264
2908, 1159, 1667, 263
2909, 263, 1667, 1180
2910, 1180, 1375, 264
2911, 1375, 1566, 264
2912, 267, 1540, 268
2913, 267, 1773, 1540
2914, 1665, 1773, 267
2915, 268, 1166, 1128
2916, 268, 1540, 1166
2917, 271, 1778, 272
2918, 271, 1429, 363
2919, 363, 1778, 271
2920, 272, 1778, 1696
2921, 275, 1746, 276
2922, 276, 1745, 1430
2923, 276, 1746, 1745
2924, 279, 1541, 280
2925, 1127, 1165, 279
2926, 1165, 1541, 279
2927, 1541, 1774, 280
2928, 280, 1774, 1666
2929, 284, 1421, 285
2930, 284, 1611, 1421
2931, 284, 1686, 1611
2932, 285, 1710, 286
2933, 1421, 1448, 285
2934, 1448, 1710, 285
2935, 1511, 1693, 286
2936, 286, 1710, 1511
2937, 288, 1197, 289
2938, 1130, 1730, 288
2939, 288, 1730, 1197
2940, 289, 1657, 290
2941, 1197, 1417, 289
2942, 1417, 1657, 289
2943, 290, 1214, 1181
2944, 290, 1657, 1214
2945, 292, 1583, 293
2946, 1182, 1216, 292
2947, 1216, 1583, 292
2948, 293, 1198, 294
2949, 293, 1725, 1198
2950, 1583, 1725, 293
2951, 294, 1632, 1129
2952, 1198, 1632, 294
2953, 296, 1709, 297
2954, 296, 1694, 1576
2955, 1576, 1709, 296
2956, 297, 1422, 298
2957, 297, 1447, 1422
2958, 297, 1709, 1447
2959, 1422, 1544, 298
2960, 1544, 1726, 298
2961, 303, 1610, 304
2962, 1289, 1296, 303
2963, 1296, 1610, 303
2964, 304, 1265, 1264
2965, 304, 1610, 1265
2966, 309, 1558, 310
2967, 1269, 1355, 309
2968, 1355, 1558, 309
2969, 310, 1151, 1131
2970, 310, 1558, 1151
2971, 315, 1559, 316
2972, 1132, 1153, 315
2973, 1153, 1559, 315
2974, 316, 1353, 1268
2975, 316, 1559, 1353
2976, 321, 1609, 322
2977, 1266, 1267, 321
2978, 1267, 1609, 321
2979, 322, 1297, 1288
2980, 322, 1609, 1297
2981, 323, 1446, 324
2982, 1142, 1446, 323
2983, 324, 1277, 325
2984, 324, 1446, 1277
2985, 325, 1509, 326
2986, 1277, 1509, 325
2987, 326, 1395, 327
2988, 326, 1509, 1395
2989, 327, 1448, 328
2990, 1395, 1448, 327
2991, 328, 1742, 329
2992, 1448, 1742, 328
2993, 329, 1346, 330
2994, 329, 1742, 1346
2995, 330, 1454, 331
2996, 1346, 1454, 330
2997, 331, 1454, 1260
2998, 342, 1661, 1282
2999, 1317, 1661, 342
3000, 344, 1425, 343
3001, 1425, 1789, 343
3002, 345, 1506, 344
3003, 344, 1506, 1425
3004, 346, 1423, 345
3005, 1423, 1506, 345
3006, 347, 1505, 346
3007, 346, 1505, 1423
3008, 348, 1424, 347
3009, 1424, 1505, 347
3010, 348, 1788, 1424
3011, 359, 1490, 360
3012, 1138, 1490, 359
3013, 360, 1394, 361
3014, 360, 1490, 1394
3015, 361, 1745, 362
3016, 1394, 1430, 361
3017, 1430, 1745, 361
3018, 1745, 1746, 362
3019, 363, 1429, 364
3020, 364, 1393, 365
3021, 364, 1429, 1393
3022, 365, 1491, 366
3023, 1393, 1491, 365
3024, 366, 1491, 1137
3025, 379, 1575, 380
3026, 1135, 1139, 379
3027, 1139, 1575, 379
3028, 380, 1594, 1133
3029, 1575, 1594, 380
3030, 381, 1698, 382
3031, 381, 1626, 1603
3032, 1603, 1698, 381
3033, 382, 1433, 1299
3034, 382, 1698, 1433
3035, 391, 1699, 392
3036, 1300, 1435, 391
3037, 1435, 1699, 391
3038, 1602, 1625, 392
3039, 392, 1699, 1602
3040, 393, 1574, 394
3041, 1136, 1592, 393
3042, 393, 1592, 1574
3043, 394, 1140, 1134
3044, 394, 1574, 1140
3045, 454, 1665, 453
3046, 455, 1721, 454
3047, 454, 1721, 1475
3048, 1475, 1773, 454
3049, 454, 1773, 1665
3050, 456, 1532, 455
3051, 1532, 1721, 455
3052, 457, 1681, 456
3053, 456, 1681, 1532
3054, 458, 1664, 457
3055, 1664, 1680, 457
3056, 1680, 1681, 457
3057, 459, 1758, 458
3058, 458, 1758, 1664
3059, 460, 1599, 459
3060, 1599, 1758, 459
3061, 461, 1241, 460
3062, 1241, 1599, 460
3063, 462, 1648, 461
3064, 461, 1648, 1241
3065, 463, 1211, 462
3066, 1211, 1648, 462
3067, 464, 1652, 463
3068, 463, 1652, 1211
3069, 465, 1240, 464
3070, 1240, 1652, 464
3071, 466, 1598, 465
3072, 465, 1598, 1240
3073, 467, 1757, 466
3074, 466, 1757, 1598
3075, 468, 1663, 467
3076, 1663, 1757, 467
3077, 469, 1679, 468
3078, 468, 1678, 1663
3079, 468, 1679, 1678
3080, 470, 1531, 469
3081, 1531, 1679, 469
3082, 471, 1722, 470
3083, 470, 1722, 1531
3084, 472, 1666, 471
3085, 1476, 1722, 471
3086, 471, 1774, 1476
3087, 1666, 1774, 471
3088, 1409, 1612, 489
3089, 489, 1724, 1409
3090, 492, 1634, 491
3091, 491, 1633, 1546
3092, 491, 1634, 1633
3093, 493, 1690, 492
3094, 492, 1690, 1634
3095, 494, 1627, 493
3096, 1627, 1690, 493
3097, 495, 1603, 494
3098, 1603, 1627, 494
3099, 496, 1433, 495
3100, 1433, 1698, 495
3101, 495, 1698, 1603
3102, 497, 1734, 496
3103, 496, 1434, 1433
3104, 496, 1734, 1434
3105, 498, 1735, 497
3106, 497, 1735, 1734
3107, 499, 1597, 498
3108, 1597, 1739, 498
3109, 498, 1739, 1735
3110, 1565, 1639, 499
3111, 499, 1639, 1597
3112, 510, 1763, 1723
3113, 512, 1642, 511
3114, 511, 1642, 1426
3115, 1426, 1795, 511
3116, 513, 1530, 512
3117, 512, 1530, 1413
3118, 1413, 1642, 512
3119, 514, 1523, 513
3120, 1523, 1530, 513
3121, 515, 1144, 514
3122, 1144, 1523, 514
3123, 516, 1501, 515
3124, 515, 1501, 1144
3125, 517, 1205, 516
3126, 1205, 1501, 516
3127, 518, 1479, 517
3128, 517, 1479, 1205
3129, 519, 1392, 518
3130, 1392, 1479, 518
3131, 520, 1494, 519
3132, 519, 1494, 1392
3133, 521, 1641, 520
3134, 520, 1641, 1494
3135, 522, 1424, 521
3136, 1424, 1641, 521
3137, 523, 1505, 522
3138, 522, 1505, 1424
3139, 524, 1423, 523
3140, 1423, 1505, 523
3141, 525, 1506, 524
3142, 524, 1506, 1423
3143, 526, 1425, 525
3144, 1425, 1506, 525
3145, 527, 1640, 526
3146, 526, 1640, 1425
3147, 528, 1495, 527
3148, 1495, 1640, 527
3149, 529, 1443, 528
3150, 1443, 1495, 528
3151, 530, 1790, 529
3152, 529, 1790, 1443
3153, 531, 1206, 530
3154, 1206, 1790, 530
3155, 532, 1502, 531
3156, 531, 1502, 1206
3157, 533, 1143, 532
3158, 1143, 1502, 532
3159, 534, 1522, 533
3160, 533, 1522, 1143
3161, 535, 1529, 534
3162, 534, 1529, 1522
3163, 536, 1644, 535
3164, 1414, 1529, 535
3165, 535, 1643, 1414
3166, 535, 1644, 1643
3167, 536, 1750, 1644
3168, 572, 1636, 573
3169, 1547, 1635, 572
3170, 1635, 1636, 572
3171, 573, 1689, 574
3172, 1636, 1689, 573
3173, 574, 1692, 575
3174, 1689, 1692, 574
3175, 575, 1602, 576
3176, 575, 1692, 1602
3177, 576, 1435, 577
3178, 576, 1699, 1435
3179, 1602, 1699, 576
3180, 577, 1736, 578
3181, 1435, 1436, 577
3182, 1436, 1736, 577
3183, 578, 1737, 579
3184, 1736, 1737, 578
3185, 579, 1668, 580
3186, 579, 1749, 1668
3187, 1737, 1749, 579
3188, 580, 1596, 1470
3189, 580, 1668, 1596
3190, 581, 1718, 1323
3191, 1127, 1248, 1165
3192, 1127, 1249, 1248
3193, 1127, 1604, 1249
3194, 1166, 1246, 1128
3195, 1246, 1247, 1128
3196, 1247, 1605, 1128
3197, 1129, 1340, 1202
3198, 1129, 1341, 1340
3199, 1129, 1632, 1341
3200, 1201, 1553, 1130
3201, 1527, 1730, 1130
3202, 1130, 1753, 1527
3203, 1553, 1753, 1130
3204, 1151, 1152, 1131
3205, 1152, 1212, 1131
3206, 1212, 1584, 1131
3207, 1132, 1154, 1153
3208, 1132, 1213, 1154
3209, 1132, 1585, 1213
3210, 1133, 1221, 1220
3211, 1133, 1222, 1221
3212, 1133, 1594, 1222
3213, 1140, 1146, 1134
3214, 1146, 1172, 1134
3215, 1172, 1655, 1134
3216, 1135, 1145, 1139
3217, 1135, 1171, 1145
3218, 1135, 1654, 1171
3219, 1228, 1229, 1136
3220, 1229, 1230, 1136
3221, 1230, 1592, 1136
3222, 1137, 1525, 1242
3223, 1137, 1491, 1412
3224, 1412, 1781, 1137
3225, 1137, 1781, 1525
3226, 1411, 1490, 1138
3227, 1138, 1533, 1411
3228, 1138, 1720, 1533
3229, 1145, 1147, 1139
3230, 1147, 1595, 1139
3231, 1139, 1595, 1575
3232, 1140, 1149, 1146
3233, 1140, 1593, 1149
3234, 1574, 1593, 1140
3235, 1141, 1477, 1283
3236, 1418, 1477, 1141
3237, 1141, 1504, 1418
3238, 1282, 1290, 1142
3239, 1290, 1318, 1142
3240, 1318, 1446, 1142
3241, 1143, 1537, 1502
3242, 1522, 1673, 1143
3243, 1143, 1673, 1537
3244, 1501, 1548, 1144
3245, 1144, 1727, 1523
3246, 1548, 1727, 1144
3247, 1145, 1148, 1147
3248, 1145, 1580, 1148
3249, 1171, 1580, 1145
3250, 1149, 1150, 1146
3251, 1150, 1577, 1146
3252, 1146, 1577, 1172
3253, 1148, 1155, 1147
3254, 1155, 1156, 1147
3255, 1156, 1595, 1147
3256, 1148, 1163, 1155
3257, 1148, 1204, 1163
3258, 1148, 1580, 1204
3259, 1149, 1157, 1150
3260, 1149, 1158, 1157
3261, 1149, 1593, 1158
3262, 1157, 1161, 1150
3263, 1161, 1203, 1150
3264, 1203, 1577, 1150
3265, 1151, 1169, 1152
3266, 1151, 1192, 1169
3267, 1151, 1558, 1192
3268, 1169, 1170, 1152
3269, 1170, 1616, 1152
3270, 1152, 1616, 1212
3271, 1154, 1167, 1153
3272, 1167, 1191, 1153
3273, 1191, 1559, 1153
3274, 1154, 1168, 1167
3275, 1154, 1617, 1168
3276, 1213, 1617, 1154
3277, 1155, 1622, 1156
3278, 1163, 1164, 1155
3279, 1164, 1622, 1155
3280, 1156, 1711, 1595
3281, 1622, 1711, 1156
3282, 1158, 1623, 1157
3283, 1157, 1162, 1161
3284, 1157, 1623, 1162
3285, 1593, 1708, 1158
3286, 1158, 1799, 1623
3287, 1708, 1799, 1158
3288, 1227, 1361, 1159
3289, 1361, 1676, 1159
3290, 1159, 1676, 1667
3291, 1160, 1363, 1235
3292, 1160, 1376, 1363
3293, 1160, 1556, 1376
3294, 1162, 1185, 1161
3295, 1185, 1670, 1161
3296, 1161, 1670, 1203
3297, 1162, 1186, 1185
3298, 1162, 1219, 1186
3299, 1162, 1623, 1219
3300, 1163, 1183, 1164
3301, 1163, 1669, 1183
3302, 1204, 1669, 1163
3303, 1183, 1184, 1164
3304, 1184, 1218, 1164
3305, 1218, 1622, 1164
3306, 1248, 1262, 1165
3307, 1262, 1294, 1165
3308, 1294, 1541, 1165
3309, 1166, 1263, 1246
3310, 1166, 1292, 1263
3311, 1166, 1540, 1292
3312, 1168, 1175, 1167
3313, 1175, 1539, 1167
3314, 1167, 1539, 1191
3315, 1168, 1176, 1175
3316, 1168, 1188, 1176
3317, 1168, 1617, 1188
3318, 1169, 1177, 1170
3319, 1169, 1538, 1177
3320, 1192, 1538, 1169
3321, 1177, 1178, 1170
3322, 1178, 1190, 1170
3323, 1190, 1616, 1170
3324, 1473, 1582, 1171
3325, 1171, 1654, 1473
3326, 1171, 1582, 1580
3327, 1172, 1579, 1474
3328, 1474, 1655, 1172
3329, 1577, 1579, 1172
3330, 1173, 1487, 1485
3331, 1173, 1714, 1487
3332, 1173, 1762, 1714
3333, 1480, 1483, 1174
3334, 1483, 1715, 1174
3335, 1715, 1761, 1174
3336, 1176, 1195, 1175
3337, 1195, 1428, 1175
3338, 1428, 1539, 1175
3339, 1188, 1600, 1176
3340, 1176, 1196, 1195
3341, 1176, 1600, 1196
3342, 1177, 1193, 1178
3343, 1177, 1427, 1193
3344, 1177, 1538, 1427
3345, 1178, 1601, 1190
3346, 1193, 1194, 1178
3347, 1194, 1601, 1178
3348, 1298, 1315, 1179
3349, 1315, 1334, 1179
3350, 1334, 1556, 1179
3351, 1180, 1526, 1375
3352, 1467, 1526, 1180
3353, 1180, 1667, 1467
3354, 1181, 1471, 1187
3355, 1214, 1215, 1181
3356, 1215, 1471, 1181
3357, 1189, 1472, 1182
3358, 1182, 1217, 1216
3359, 1182, 1472, 1217
3360, 1183, 1209, 1184
3361, 1183, 1513, 1209
3362, 1183, 1669, 1513
3363, 1209, 1210, 1184
3364, 1210, 1587, 1184
3365, 1184, 1587, 1218
3366, 1186, 1207, 1185
3367, 1207, 1512, 1185
3368, 1512, 1670, 1185
3369, 1186, 1208, 1207
3370, 1186, 1586, 1208
3371, 1219, 1586, 1186
3372, 1471, 1703, 1187
3373, 1187, 1731, 1686
3374, 1703, 1731, 1187
3375, 1188, 1798, 1600
3376, 1617, 1656, 1188
3377, 1656, 1798, 1188
3378, 1189, 1660, 1472
3379, 1189, 1695, 1660
3380, 1189, 1726, 1695
3381, 1601, 1771, 1190
3382, 1190, 1733, 1616
3383, 1190, 1771, 1733
3384, 1191, 1539, 1499
3385, 1499, 1684, 1191
3386, 1191, 1684, 1559
3387, 1497, 1538, 1192
3388, 1192, 1683, 1497
3389, 1558, 1683, 1192
3390, 1193, 1244, 1194
3391, 1193, 1519, 1244
3392, 1427, 1519, 1193
3393, 1244, 1258, 1194
3394, 1258, 1280, 1194
3395, 1280, 1601, 1194
3396, 1196, 1245, 1195
3397, 1245, 1517, 1195
3398, 1195, 1517, 1428
3399, 1196, 1259, 1245
3400, 1196, 1281, 1259
3401, 1196, 1600, 1281
3402, 1197, 1432, 1417
3403, 1197, 1792, 1432
3404, 1197, 1730, 1500
3405, 1500, 1792, 1197
3406, 1492, 1632, 1198
3407, 1198, 1791, 1492
3408, 1725, 1791, 1198
3409, 1238, 1239, 1199
3410, 1239, 1700, 1199
3411, 1199, 1700, 1414
3412, 1200, 1237, 1236
3413, 1200, 1701, 1237
3414, 1413, 1701, 1200
3415, 1201, 1760, 1553
3416, 1693, 1717, 1201
3417, 1717, 1760, 1201
3418, 1340, 1419, 1202
3419, 1419, 1420, 1202
3420, 1420, 1694, 1202
3421, 1203, 1578, 1577
3422, 1203, 1705, 1578
3423, 1670, 1705, 1203
3424, 1580, 1581, 1204
3425, 1581, 1704, 1204
3426, 1204, 1704, 1669
3427, 1479, 1564, 1205
3428, 1205, 1702, 1501
3429, 1564, 1702, 1205
3430, 1206, 1744, 1445
3431, 1445, 1790, 1206
3432, 1502, 1503, 1206
3433, 1503, 1744, 1206
3434, 1208, 1250, 1207
3435, 1250, 1439, 1207
3436, 1439, 1512, 1207
3437, 1208, 1251, 1250
3438, 1208, 1272, 1251
3439, 1208, 1586, 1272
3440, 1209, 1252, 1210
3441, 1209, 1440, 1252
3442, 1209, 1513, 1440
3443, 1252, 1253, 1210
3444, 1253, 1270, 1210
3445, 1270, 1587, 1210
3446, 1484, 1647, 1211
3447, 1211, 1652, 1484
3448, 1211, 1647, 1489
3449, 1489, 1648, 1211
3450, 1212, 1768, 1584
3451, 1616, 1677, 1212
3452, 1677, 1768, 1212
3453, 1585, 1767, 1213
3454, 1213, 1706, 1617
3455, 1213, 1767, 1706
3456, 1214, 1254, 1215
3457, 1214, 1255, 1254
3458, 1214, 1657, 1255
3459, 1254, 1348, 1215
3460, 1348, 1408, 1215
3461, 1408, 1471, 1215
3462, 1217, 1256, 1216
3463, 1256, 1257, 1216
3464, 1257, 1583, 1216
3465, 1217, 1313, 1256
3466, 1217, 1415, 1313
3467, 1217, 1472, 1415
3468, 1560, 1622, 1218
3469, 1218, 1732, 1560
3470, 1587, 1732, 1218
3471, 1219, 1623, 1561
3472, 1561, 1712, 1219
3473, 1219, 1712, 1586
3474, 1221, 1449, 1220
3475, 1449, 1450, 1220
3476, 1450, 1626, 1220
3477, 1222, 1223, 1221
3478, 1223, 1226, 1221
3479, 1226, 1449, 1221
3480, 1222, 1224, 1223
3481, 1222, 1589, 1224
3482, 1222, 1594, 1589
3483, 1224, 1225, 1223
3484, 1225, 1572, 1223
3485, 1223, 1572, 1226
3486, 1224, 1284, 1225
3487, 1224, 1351, 1284
3488, 1224, 1589, 1351
3489, 1284, 1287, 1225
3490, 1287, 1305, 1225
3491, 1305, 1572, 1225
3492, 1226, 1659, 1449
3493, 1572, 1621, 1226
3494, 1621, 1659, 1226
3495, 1227, 1362, 1361
3496, 1227, 1388, 1362
3497, 1227, 1637, 1388
3498, 1228, 1451, 1229
3499, 1228, 1452, 1451
3500, 1228, 1625, 1452
3501, 1229, 1231, 1230
3502, 1229, 1234, 1231
3503, 1229, 1451, 1234
3504, 1231, 1232, 1230
3505, 1232, 1588, 1230
3506, 1588, 1592, 1230
3507, 1231, 1233, 1232
3508, 1231, 1573, 1233
3509, 1234, 1573, 1231
3510, 1233, 1285, 1232
3511, 1285, 1349, 1232
3512, 1349, 1588, 1232
3513, 1233, 1286, 1285
3514, 1233, 1307, 1286
3515, 1233, 1573, 1307
3516, 1451, 1646, 1234
3517, 1234, 1620, 1573
3518, 1234, 1646, 1620
3519, 1363, 1364, 1235
3520, 1364, 1390, 1235
3521, 1390, 1638, 1235
3522, 1237, 1303, 1236
3523, 1303, 1324, 1236
3524, 1324, 1563, 1236
3525, 1237, 1304, 1303
3526, 1237, 1326, 1304
3527, 1237, 1701, 1326
3528, 1238, 1301, 1239
3529, 1238, 1325, 1301
3530, 1238, 1562, 1325
3531, 1301, 1302, 1239
3532, 1302, 1327, 1239
3533, 1327, 1700, 1239
3534, 1240, 1542, 1484
3535, 1484, 1652, 1240
3536, 1240, 1598, 1542
3537, 1489, 1543, 1241
3538, 1241, 1648, 1489
3539, 1543, 1599, 1241
3540, 1516, 1765, 1242
3541, 1242, 1794, 1516
3542, 1525, 1557, 1242
3543, 1557, 1794, 1242
3544, 1291, 1777, 1243
3545, 1707, 1720, 1243
3546, 1243, 1777, 1707
3547, 1244, 1335, 1258
3548, 1244, 1336, 1335
3549, 1244, 1519, 1336
3550, 1259, 1337, 1245
3551, 1337, 1339, 1245
3552, 1339, 1517, 1245
3553, 1246, 1630, 1247
3554, 1263, 1310, 1246
3555, 1310, 1630, 1246
3556, 1247, 1630, 1518
3557, 1518, 1672, 1247
3558, 1247, 1672, 1605
3559, 1249, 1629, 1248
3560, 1248, 1309, 1262
3561, 1248, 1629, 1309
3562, 1520, 1629, 1249
3563, 1249, 1671, 1520
3564, 1604, 1671, 1249
3565, 1251, 1545, 1250
3566, 1250, 1441, 1439
3567, 1250, 1545, 1441
3568, 1272, 1273, 1251
3569, 1273, 1278, 1251
3570, 1278, 1545, 1251
3571, 1252, 1571, 1253
3572, 1440, 1442, 1252
3573, 1442, 1571, 1252
3574, 1253, 1271, 1270
3575, 1253, 1279, 1271
3576, 1253, 1571, 1279
3577, 1255, 1515, 1254
3578, 1254, 1431, 1348
3579, 1254, 1515, 1431
3580, 1255, 1618, 1515
3581, 1255, 1631, 1618
3582, 1255, 1657, 1631
3583, 1256, 1342, 1257
3584, 1313, 1444, 1256
3585, 1256, 1444, 1342
3586, 1342, 1645, 1257
3587, 1257, 1743, 1583
3588, 1645, 1743, 1257
3589, 1258, 1662, 1280
3590, 1335, 1368, 1258
3591, 1368, 1662, 1258
3592, 1281, 1682, 1259
3593, 1259, 1338, 1337
3594, 1259, 1682, 1338
3595, 1454, 1455, 1260
3596, 1455, 1456, 1260
3597, 1456, 1752, 1260
3598, 1261, 1462, 1461
3599, 1261, 1463, 1462
3600, 1261, 1751, 1463
3601, 1262, 1295, 1294
3602, 1262, 1755, 1295
3603, 1309, 1755, 1262
3604, 1292, 1293, 1263
3605, 1293, 1756, 1263
3606, 1263, 1756, 1310
3607, 1265, 1319, 1264
3608, 1319, 1554, 1264
3609, 1554, 1650, 1264
3610, 1265, 1320, 1319
3611, 1265, 1405, 1320
3612, 1265, 1610, 1405
3613, 1266, 1321, 1267
3614, 1266, 1555, 1321
3615, 1266, 1651, 1555
3616, 1321, 1322, 1267
3617, 1322, 1404, 1267
3618, 1404, 1609, 1267
3619, 1353, 1354, 1268
3620, 1354, 1370, 1268
3621, 1370, 1651, 1268
3622, 1269, 1356, 1355
3623, 1269, 1369, 1356
3624, 1269, 1650, 1369
3625, 1271, 1786, 1270
3626, 1270, 1493, 1416
3627, 1416, 1587, 1270
3628, 1270, 1786, 1493
3629, 1279, 1329, 1271
3630, 1329, 1330, 1271
3631, 1330, 1786, 1271
3632, 1272, 1332, 1273
3633, 1272, 1333, 1332
3634, 1272, 1586, 1333
3635, 1273, 1590, 1278
3636, 1332, 1374, 1273
3637, 1374, 1590, 1273
3638, 1485, 1486, 1274
3639, 1486, 1488, 1274
3640, 1488, 1521, 1274
3641, 1275, 1481, 1480
3642, 1275, 1482, 1481
3643, 1275, 1521, 1482
3644, 1468, 1504, 1276
3645, 1276, 1716, 1468
3646, 1508, 1716, 1276
3647, 1446, 1524, 1277
3648, 1277, 1510, 1509
3649, 1277, 1524, 1510
3650, 1278, 1719, 1545
3651, 1590, 1591, 1278
3652, 1591, 1719, 1278
3653, 1279, 1331, 1329
3654, 1279, 1343, 1331
3655, 1279, 1571, 1343
3656, 1469, 1601, 1280
3657, 1280, 1649, 1469
3658, 1280, 1662, 1649
3659, 1281, 1600, 1460
3660, 1460, 1653, 1281
3661, 1653, 1682, 1281
3662, 1282, 1314, 1290
3663, 1282, 1661, 1314
3664, 1477, 1478, 1283
3665, 1478, 1685, 1283
3666, 1283, 1685, 1514
3667, 1514, 1793, 1283
3668, 1284, 1624, 1287
3669, 1351, 1352, 1284
3670, 1352, 1624, 1284
3671, 1286, 1628, 1285
3672, 1285, 1350, 1349
3673, 1285, 1628, 1350
3674, 1307, 1308, 1286
3675, 1308, 1432, 1286
3676, 1432, 1628, 1286
3677, 1287, 1306, 1305
3678, 1287, 1613, 1306
3679, 1287, 1624, 1613
3680, 1297, 1549, 1288
3681, 1549, 1550, 1288
3682, 1550, 1585, 1288
3683, 1289, 1551, 1296
3684, 1289, 1552, 1551
3685, 1289, 1584, 1552
3686, 1314, 1371, 1290
3687, 1290, 1759, 1318
3688, 1371, 1759, 1290
3689, 1444, 1777, 1291
3690, 1291, 1787, 1444
3691, 1608, 1658, 1291
3692, 1658, 1787, 1291
3693, 1292, 1372, 1293
3694, 1292, 1475, 1372
3695, 1292, 1540, 1475
3696, 1372, 1728, 1293
3697, 1498, 1499, 1293
3698, 1293, 1728, 1498
3699, 1499, 1756, 1293
3700, 1295, 1373, 1294
3701, 1373, 1476, 1294
3702, 1476, 1541, 1294
3703, 1295, 1729, 1373
3704, 1295, 1497, 1496
3705, 1496, 1729, 1295
3706, 1295, 1755, 1497
3707, 1551, 1614, 1296
3708, 1296, 1614, 1610
3709, 1297, 1615, 1549
3710, 1609, 1615, 1297
3711, 1298, 1328, 1315
3712, 1298, 1535, 1328
3713, 1298, 1766, 1535
3714, 1433, 1434, 1299
3715, 1434, 1473, 1299
3716, 1473, 1654, 1299
3717, 1300, 1436, 1435
3718, 1300, 1474, 1436
3719, 1300, 1655, 1474
3720, 1301, 1780, 1302
3721, 1325, 1399, 1301
3722, 1399, 1780, 1301
3723, 1302, 1358, 1327
3724, 1302, 1439, 1358
3725, 1302, 1780, 1439
3726, 1304, 1779, 1303
3727, 1303, 1398, 1324
3728, 1303, 1779, 1398
3729, 1326, 1357, 1304
3730, 1357, 1440, 1304
3731, 1440, 1779, 1304
3732, 1306, 1365, 1305
3733, 1365, 1687, 1305
3734, 1305, 1687, 1572
3735, 1306, 1386, 1365
3736, 1306, 1387, 1386
3737, 1306, 1613, 1387
3738, 1307, 1691, 1308
3739, 1573, 1688, 1307
3740, 1688, 1691, 1307
3741, 1308, 1772, 1432
3742, 1308, 1691, 1619
3743, 1619, 1772, 1308
3744, 1629, 1784, 1309
3745, 1675, 1755, 1309
3746, 1309, 1784, 1675
3747, 1310, 1783, 1630
3748, 1310, 1756, 1674
3749, 1674, 1783, 1310
3750, 1311, 1570, 1550
3751, 1550, 1769, 1311
3752, 1311, 1752, 1570
3753, 1552, 1569, 1312
3754, 1312, 1770, 1552
3755, 1569, 1751, 1312
3756, 1415, 1754, 1313
3757, 1313, 1707, 1444
3758, 1534, 1707, 1313
3759, 1313, 1754, 1534
3760, 1314, 1445, 1371
3761, 1443, 1445, 1314
3762, 1314, 1661, 1443
3763, 1328, 1515, 1315
3764, 1315, 1618, 1334
3765, 1515, 1618, 1315
3766, 1316, 1494, 1366
3767, 1316, 1764, 1494
3768, 1514, 1764, 1316
3769, 1367, 1495, 1317
3770, 1495, 1661, 1317
3771, 1318, 1740, 1446
3772, 1590, 1740, 1318
3773, 1318, 1759, 1590
3774, 1320, 1400, 1319
3775, 1400, 1663, 1319
3776, 1319, 1663, 1554
3777, 1320, 1401, 1400
3778, 1320, 1567, 1401
3779, 1405, 1567, 1320
3780, 1321, 1402, 1322
3781, 1321, 1664, 1402
3782, 1555, 1664, 1321
3783, 1402, 1403, 1322
3784, 1403, 1568, 1322
3785, 1322, 1568, 1404
3786, 1323, 1718, 1507
3787, 1507, 1750, 1323
3788, 1398, 1704, 1324
3789, 1324, 1607, 1563
3790, 1324, 1704, 1607
3791, 1325, 1705, 1399
3792, 1562, 1606, 1325
3793, 1606, 1705, 1325
3794, 1326, 1523, 1357
3795, 1326, 1530, 1523
3796, 1326, 1701, 1530
3797, 1358, 1522, 1327
3798, 1522, 1529, 1327
3799, 1529, 1700, 1327
3800, 1431, 1515, 1328
3801, 1328, 1516, 1431
3802, 1328, 1776, 1516
3803, 1535, 1776, 1328
3804, 1329, 1418, 1330
3805, 1331, 1477, 1329
3806, 1329, 1477, 1418
3807, 1418, 1468, 1330
3808, 1330, 1782, 1419
3809, 1419, 1786, 1330
3810, 1468, 1782, 1330
3811, 1343, 1564, 1331
3812, 1331, 1478, 1477
3813, 1331, 1564, 1478
3814, 1333, 1760, 1332
3815, 1332, 1397, 1374
3816, 1332, 1760, 1397
3817, 1333, 1712, 1528
3818, 1528, 1753, 1333
3819, 1333, 1753, 1553
3820, 1553, 1760, 1333
3821, 1586, 1712, 1333
3822, 1334, 1738, 1556
3823, 1618, 1619, 1334
3824, 1619, 1738, 1334
3825, 1336, 1411, 1335
3826, 1335, 1533, 1368
3827, 1411, 1533, 1335
3828, 1336, 1438, 1411
3829, 1336, 1520, 1438
3830, 1519, 1520, 1336
3831, 1338, 1781, 1337
3832, 1337, 1412, 1339
3833, 1337, 1781, 1412
3834, 1338, 1713, 1525
3835, 1525, 1781, 1338
3836, 1682, 1713, 1338
3837, 1412, 1437, 1339
3838, 1437, 1518, 1339
3839, 1339, 1518, 1517
3840, 1341, 1416, 1340
3841, 1416, 1493, 1340
3842, 1340, 1493, 1419
3843, 1341, 1775, 1416
3844, 1341, 1632, 1453
3845, 1453, 1775, 1341
3846, 1444, 1787, 1342
3847, 1526, 1645, 1342
3848, 1342, 1787, 1526
3849, 1343, 1571, 1548
3850, 1548, 1702, 1343
3851, 1343, 1702, 1564
3852, 1360, 1377, 1344
3853, 1377, 1739, 1344
3854, 1344, 1739, 1597
3855, 1345, 1380, 1359
3856, 1345, 1749, 1380
3857, 1668, 1749, 1345
3858, 1421, 1611, 1346
3859, 1346, 1742, 1421
3860, 1346, 1457, 1454
3861, 1346, 1611, 1457
3862, 1347, 1544, 1422
3863, 1422, 1741, 1347
3864, 1461, 1464, 1347
3865, 1464, 1544, 1347
3866, 1348, 1713, 1408
3867, 1431, 1794, 1348
3868, 1557, 1713, 1348
3869, 1348, 1794, 1557
3870, 1350, 1384, 1349
3871, 1384, 1708, 1349
3872, 1349, 1708, 1588
3873, 1350, 1385, 1384
3874, 1350, 1500, 1385
3875, 1350, 1628, 1500
3876, 1351, 1383, 1352
3877, 1351, 1711, 1383
3878, 1589, 1711, 1351
3879, 1383, 1453, 1352
3880, 1453, 1492, 1352
3881, 1492, 1624, 1352
3882, 1353, 1498, 1354
3883, 1353, 1684, 1498
3884, 1559, 1684, 1353
3885, 1354, 1681, 1370
3886, 1498, 1728, 1354
3887, 1532, 1681, 1354
3888, 1354, 1728, 1532
3889, 1356, 1496, 1355
3890, 1496, 1683, 1355
3891, 1355, 1683, 1558
3892, 1369, 1679, 1356
3893, 1356, 1729, 1496
3894, 1356, 1679, 1531
3895, 1531, 1729, 1356
3896, 1357, 1442, 1440
3897, 1357, 1727, 1442
3898, 1523, 1727, 1357
3899, 1439, 1441, 1358
3900, 1441, 1673, 1358
3901, 1358, 1673, 1522
3902, 1380, 1381, 1359
3903, 1381, 1606, 1359
3904, 1359, 1606, 1562
3905, 1360, 1378, 1377
3906, 1360, 1607, 1378
3907, 1563, 1607, 1360
3908, 1362, 1621, 1361
3909, 1621, 1687, 1361
3910, 1361, 1687, 1676
3911, 1388, 1389, 1362
3912, 1389, 1659, 1362
3913, 1362, 1659, 1621
3914, 1363, 1620, 1364
3915, 1376, 1688, 1363
3916, 1363, 1688, 1620
3917, 1364, 1391, 1390
3918, 1364, 1646, 1391
3919, 1620, 1646, 1364
3920, 1386, 1467, 1365
3921, 1467, 1676, 1365
3922, 1676, 1687, 1365
3923, 1494, 1641, 1366
3924, 1641, 1788, 1366
3925, 1367, 1640, 1495
3926, 1367, 1789, 1640
3927, 1533, 1534, 1368
3928, 1534, 1754, 1368
3929, 1368, 1754, 1662
3930, 1369, 1650, 1554
3931, 1554, 1678, 1369
3932, 1678, 1679, 1369
3933, 1555, 1651, 1370
3934, 1370, 1680, 1555
3935, 1370, 1681, 1680
3936, 1445, 1744, 1371
3937, 1371, 1744, 1591
3938, 1591, 1759, 1371
3939, 1475, 1721, 1372
3940, 1721, 1728, 1372
3941, 1373, 1722, 1476
3942, 1373, 1729, 1722
3943, 1397, 1524, 1374
3944, 1524, 1740, 1374
3945, 1374, 1740, 1590
3946, 1526, 1658, 1375
3947, 1375, 1608, 1566
3948, 1375, 1658, 1608
3949, 1556, 1738, 1376
3950, 1376, 1691, 1688
3951, 1376, 1738, 1691
3952, 1378, 1379, 1377
3953, 1379, 1735, 1377
3954, 1735, 1739, 1377
3955, 1378, 1785, 1379
3956, 1581, 1582, 1378
3957, 1378, 1607, 1581
3958, 1582, 1785, 1378
3959, 1379, 1473, 1434
3960, 1434, 1734, 1379
3961, 1379, 1785, 1473
3962, 1734, 1735, 1379
3963, 1380, 1382, 1381
3964, 1380, 1737, 1382
3965, 1380, 1749, 1737
3966, 1382, 1796, 1381
3967, 1381, 1579, 1578
3968, 1578, 1606, 1381
3969, 1381, 1796, 1579
3970, 1436, 1474, 1382
3971, 1382, 1736, 1436
3972, 1474, 1796, 1382
3973, 1382, 1737, 1736
3974, 1383, 1560, 1453
3975, 1383, 1622, 1560
3976, 1383, 1711, 1622
3977, 1385, 1561, 1384
3978, 1561, 1799, 1384
3979, 1384, 1799, 1708
3980, 1500, 1527, 1385
3981, 1527, 1528, 1385
3982, 1528, 1561, 1385
3983, 1387, 1743, 1386
3984, 1386, 1645, 1467
3985, 1386, 1743, 1645
3986, 1387, 1725, 1583
3987, 1583, 1743, 1387
3988, 1613, 1725, 1387
3989, 1388, 1690, 1389
3990, 1388, 1637, 1634
3991, 1634, 1690, 1388
3992, 1389, 1450, 1449
3993, 1449, 1659, 1389
3994, 1389, 1627, 1450
3995, 1389, 1690, 1627
3996, 1391, 1689, 1390
3997, 1636, 1638, 1390
3998, 1390, 1689, 1636
3999, 1646, 1797, 1391
4000, 1391, 1692, 1689
4001, 1391, 1797, 1692
4002, 1392, 1685, 1479
4003, 1494, 1764, 1392
4004, 1392, 1764, 1685
4005, 1429, 1605, 1393
4006, 1437, 1491, 1393
4007, 1393, 1672, 1437
4008, 1605, 1672, 1393
4009, 1394, 1604, 1430
4010, 1394, 1490, 1438
4011, 1438, 1671, 1394
4012, 1394, 1671, 1604
4013, 1395, 1710, 1448
4014, 1509, 1511, 1395
4015, 1511, 1710, 1395
4016, 1447, 1709, 1396
4017, 1396, 1576, 1508
4018, 1396, 1709, 1576
4019, 1510, 1524, 1397
4020, 1397, 1717, 1510
4021, 1397, 1760, 1717
4022, 1513, 1669, 1398
4023, 1398, 1779, 1513
4024, 1669, 1704, 1398
4025, 1399, 1670, 1512
4026, 1512, 1780, 1399
4027, 1399, 1705, 1670
4028, 1401, 1757, 1400
4029, 1400, 1757, 1663
4030, 1567, 1747, 1401
4031, 1401, 1747, 1598
4032, 1598, 1757, 1401
4033, 1402, 1758, 1403
4034, 1664, 1758, 1402
4035, 1403, 1748, 1568
4036, 1599, 1748, 1403
4037, 1403, 1758, 1599
4038, 1568, 1714, 1404
4039, 1404, 1615, 1609
4040, 1404, 1714, 1615
4041, 1405, 1715, 1567
4042, 1610, 1614, 1405
4043, 1614, 1715, 1405
4044, 1406, 1614, 1551
4045, 1551, 1770, 1406
4046, 1406, 1761, 1614
4047, 1549, 1615, 1407
4048, 1407, 1769, 1549
4049, 1615, 1762, 1407
4050, 1408, 1653, 1471
4051, 1408, 1682, 1653
4052, 1408, 1713, 1682
4053, 1409, 1724, 1546
4054, 1547, 1723, 1410
4055, 1723, 1763, 1410
4056, 1438, 1490, 1411
4057, 1412, 1491, 1437
4058, 1530, 1701, 1413
4059, 1414, 1700, 1529
4060, 1472, 1649, 1415
4061, 1649, 1662, 1415
4062, 1662, 1754, 1415
4063, 1416, 1732, 1587
4064, 1416, 1775, 1732
4065, 1432, 1772, 1417
4066, 1631, 1657, 1417
4067, 1417, 1772, 1631
4068, 1418, 1504, 1468
4069, 1419, 1782, 1420
4070, 1493, 1786, 1419
4071, 1576, 1694, 1420
4072, 1420, 1716, 1576
4073, 1420, 1782, 1716
4074, 1421, 1742, 1448
4075, 1447, 1741, 1422
4076, 1424, 1788, 1641
4077, 1640, 1789, 1425
4078, 1565, 1795, 1426
4079, 1427, 1784, 1519
4080, 1538, 1675, 1427
4081, 1675, 1784, 1427
4082, 1517, 1783, 1428
4083, 1428, 1674, 1539
4084, 1428, 1783, 1674
4085, 1516, 1794, 1431
4086, 1432, 1792, 1628
4087, 1437, 1672, 1518
4088, 1520, 1671, 1438
4089, 1439, 1780, 1512
4090, 1513, 1779, 1440
4091, 1441, 1545, 1537
4092, 1537, 1673, 1441
4093, 1548, 1571, 1442
4094, 1442, 1727, 1548
4095, 1443, 1790, 1445
4096, 1443, 1661, 1495
4097, 1707, 1777, 1444
4098, 1446, 1740, 1524
4099, 1603, 1626, 1450
4100, 1450, 1627, 1603
4101, 1452, 1797, 1451
4102, 1451, 1797, 1646
4103, 1452, 1625, 1602
4104, 1602, 1692, 1452
4105, 1692, 1797, 1452
4106, 1453, 1632, 1492
4107, 1560, 1775, 1453
4108, 1454, 1457, 1455
4109, 1455, 1459, 1456
4110, 1457, 1458, 1455
4111, 1458, 1459, 1455
4112, 1459, 1656, 1456
4113, 1456, 1706, 1570
4114, 1570, 1752, 1456
4115, 1656, 1706, 1456
4116, 1457, 1731, 1458
4117, 1611, 1731, 1457
4118, 1458, 1460, 1459
4119, 1458, 1703, 1460
4120, 1458, 1731, 1703
4121, 1460, 1798, 1459
4122, 1459, 1798, 1656
4123, 1600, 1798, 1460
4124, 1460, 1703, 1653
4125, 1462, 1464, 1461
4126, 1463, 1466, 1462
4127, 1462, 1465, 1464
4128, 1462, 1466, 1465
4129, 1463, 1733, 1466
4130, 1569, 1677, 1463
4131, 1463, 1751, 1569
4132, 1677, 1733, 1463
4133, 1465, 1695, 1464
4134, 1464, 1695, 1544
4135, 1466, 1469, 1465
4136, 1469, 1660, 1465
4137, 1660, 1695, 1465
4138, 1466, 1771, 1469
4139, 1733, 1771, 1466
4140, 1467, 1645, 1526
4141, 1667, 1676, 1467
4142, 1716, 1782, 1468
4143, 1469, 1771, 1601
4144, 1649, 1660, 1469
4145, 1507, 1718, 1470
4146, 1653, 1703, 1471
4147, 1472, 1660, 1649
4148, 1473, 1785, 1582
4149, 1579, 1796, 1474
4150, 1540, 1773, 1475
4151, 1476, 1774, 1541
4152, 1478, 1564, 1479
4153, 1479, 1685, 1478
4154, 1481, 1483, 1480
4155, 1482, 1484, 1481
4156, 1481, 1542, 1483
4157, 1484, 1542, 1481
4158, 1482, 1647, 1484
4159, 1482, 1521, 1488
4160, 1488, 1647, 1482
4161, 1542, 1747, 1483
4162, 1567, 1715, 1483
4163, 1483, 1747, 1567
4164, 1485, 1487, 1486
4165, 1487, 1543, 1486
4166, 1486, 1489, 1488
4167, 1486, 1543, 1489
4168, 1487, 1748, 1543
4169, 1487, 1714, 1568
4170, 1568, 1748, 1487
4171, 1489, 1647, 1488
4172, 1492, 1791, 1624
4173, 1497, 1683, 1496
4174, 1497, 1675, 1538
4175, 1497, 1755, 1675
4176, 1498, 1684, 1499
4177, 1539, 1674, 1499
4178, 1674, 1756, 1499
4179, 1500, 1730, 1527
4180, 1628, 1792, 1500
4181, 1501, 1702, 1548
4182, 1502, 1537, 1503
4183, 1537, 1719, 1503
4184, 1503, 1719, 1591
4185, 1591, 1744, 1503
4186, 1644, 1750, 1507
4187, 1576, 1716, 1508
4188, 1510, 1511, 1509
4189, 1510, 1717, 1511
4190, 1511, 1717, 1693
4191, 1685, 1764, 1514
4192, 1516, 1776, 1765
4193, 1518, 1630, 1517
4194, 1630, 1783, 1517
4195, 1519, 1629, 1520
4196, 1519, 1784, 1629
4197, 1525, 1713, 1557
4198, 1526, 1787, 1658
4199, 1527, 1753, 1528
4200, 1528, 1712, 1561
4201, 1722, 1729, 1531
4202, 1532, 1728, 1721
4203, 1533, 1720, 1534
4204, 1534, 1720, 1707
4205, 1535, 1766, 1536
4206, 1545, 1719, 1537
4207, 1598, 1747, 1542
4208, 1543, 1748, 1599
4209, 1695, 1726, 1544
4210, 1549, 1769, 1550
4211, 1570, 1767, 1550
4212, 1550, 1767, 1585
4213, 1552, 1770, 1551
4214, 1552, 1768, 1569
4215, 1584, 1768, 1552
4216, 1663, 1678, 1554
4217, 1555, 1680, 1664
4218, 1732, 1775, 1560
4219, 1623, 1799, 1561
4220, 1569, 1768, 1677
4221, 1706, 1767, 1570
4222, 1572, 1687, 1621
4223, 1620, 1688, 1573
4224, 1592, 1593, 1574
4225, 1575, 1595, 1594
4226, 1578, 1579, 1577
4227, 1578, 1705, 1606
4228, 1580, 1582, 1581
4229, 1607, 1704, 1581
4230, 1588, 1593, 1592
4231, 1588, 1708, 1593
4232, 1594, 1595, 1589
4233, 1595, 1711, 1589
4234, 1590, 1759, 1591
4235, 1686, 1731, 1611
4236, 1624, 1791, 1613
4237, 1613, 1791, 1725
4238, 1614, 1761, 1715
4239, 1714, 1762, 1615
4240, 1616, 1733, 1677
4241, 1617, 1706, 1656
4242, 1618, 1631, 1619
4243, 1631, 1772, 1619
4244, 1691, 1738, 1619
*ELEMENT, type=CPS3, ELSET=Surface76
4245, 1, 1833, 148
4246, 171, 1874, 1
4247, 1, 2253, 1833
4248, 1874, 2253, 1
4249, 147, 2203, 3
4250, 3, 2203, 400
4251, 9, 2223, 171
4252, 354, 1982, 9
4253, 1982, 2223, 9
4254, 191, 1921, 15
4255, 15, 2121, 490
4256, 1921, 2037, 15
4257, 2037, 2121, 15
4258, 16, 1894, 191
4259, 355, 1835, 16
4260, 1835, 2272, 16
4261, 16, 2272, 1894
4262, 193, 1893, 19
4263, 19, 1834, 370
4264, 19, 2271, 1834
4265, 1893, 2271, 19
4266, 20, 1920, 193
4267, 509, 2120, 20
4268, 20, 2034, 1920
4269, 20, 2120, 2034
4270, 227, 2241, 35
4271, 35, 2266, 446
4272, 35, 2241, 2043
4273, 2043, 2266, 35
4274, 109, 1870, 36
4275, 36, 2241, 227
4276, 1870, 2241, 36
4277, 39, 1871, 114
4278, 231, 2240, 39
4279, 39, 2240, 1871
4280, 40, 2240, 231
4281, 431, 2265, 40
4282, 2042, 2240, 40
4283, 40, 2265, 2042
4284, 43, 1806, 238
4285, 241, 2066, 43
4286, 43, 1859, 1806
4287, 43, 2066, 1859
4288, 237, 2034, 46
4289, 46, 2000, 242
4290, 46, 2120, 2000
4291, 2034, 2120, 46
4292, 47, 2041, 246
4293, 249, 2017, 47
4294, 2017, 2041, 47
4295, 245, 1805, 50
4296, 50, 1948, 250
4297, 1805, 2094, 50
4298, 50, 2094, 1948
4299, 51, 2018, 254
4300, 257, 2040, 51
4301, 51, 2192, 2018
4302, 2040, 2192, 51
4303, 253, 1947, 54
4304, 54, 1804, 258
4305, 54, 2093, 1804
4306, 1947, 2093, 54
4307, 55, 2065, 262
4308, 265, 1807, 55
4309, 1807, 1852, 55
4310, 1852, 2065, 55
4311, 261, 2001, 58
4312, 58, 2037, 266
4313, 2001, 2121, 58
4314, 58, 2121, 2037
4315, 59, 1841, 270
4316, 273, 2139, 59
4317, 59, 1909, 1841
4318, 59, 2139, 1909
4319, 269, 2152, 62
4320, 62, 2179, 274
4321, 62, 2152, 473
4322, 473, 2179, 62
4323, 63, 2138, 278
4324, 281, 1840, 63
4325, 1840, 1910, 63
4326, 1910, 2138, 63
4327, 277, 2180, 66
4328, 66, 2151, 282
4329, 452, 2151, 66
4330, 66, 2180, 452
4331, 339, 1832, 79
4332, 79, 2260, 341
4333, 1832, 1875, 79
4334, 1875, 2260, 79
4335, 82, 2243, 340
4336, 415, 2243, 82
4337, 341, 1931, 83
4338, 83, 2270, 349
4339, 1931, 1967, 83
4340, 1967, 2270, 83
4341, 87, 2180, 85
4342, 85, 2268, 358
4343, 2180, 2268, 85
4344, 452, 2180, 87
4345, 89, 2277, 92
4346, 367, 2247, 89
4347, 2247, 2277, 89
4348, 92, 2179, 473
4349, 92, 2277, 2179
4350, 371, 2150, 93
4351, 93, 1803, 376
4352, 93, 1846, 1803
4353, 93, 2150, 1846
4354, 95, 2134, 372
4355, 375, 1801, 95
4356, 1801, 2133, 95
4357, 2133, 2134, 95
4358, 383, 1802, 99
4359, 99, 2149, 388
4360, 1802, 1853, 99
4361, 1853, 2149, 99
4362, 101, 1800, 384
4363, 387, 2132, 101
4364, 101, 2131, 1800
4365, 101, 2132, 2131
4366, 106, 2200, 107
4367, 398, 1827, 106
4368, 1827, 2226, 106
4369, 2046, 2200, 106
4370, 106, 2226, 2046
4371, 107, 1845, 411
4372, 107, 1872, 1845
4373, 107, 2200, 1872
4374, 112, 2147, 109
4375, 109, 1886, 1870
4376, 109, 2147, 1886
4377, 408, 1878, 112
4378, 1878, 2054, 112
4379, 2054, 2147, 112
4380, 114, 2146, 115
4381, 1871, 1885, 114
4382, 1885, 2146, 114
4383, 115, 1877, 429
4384, 115, 2053, 1877
4385, 115, 2146, 2053
4386, 120, 2201, 117
4387, 117, 1826, 417
4388, 117, 2225, 1826
4389, 117, 2201, 2045
4390, 2045, 2225, 117
4391, 426, 1844, 120
4392, 1844, 1873, 120
4393, 1873, 2201, 120
4394, 128, 121, 123
4395, 128, 2258, 121
4396, 121, 2003, 434
4397, 121, 2258, 2003
4398, 126, 127, 130
4399, 126, 2259, 127
4400, 449, 2002, 126
4401, 2002, 2259, 126
4402, 127, 2259, 450
4403, 475, 2258, 128
4404, 132, 2218, 133
4405, 490, 2218, 132
4406, 133, 2071, 500
4407, 133, 2218, 2071
4408, 136, 2279, 138
4409, 508, 2085, 136
4410, 2085, 2279, 136
4411, 138, 2279, 537
4412, 141, 2217, 139
4413, 139, 2217, 509
4414, 563, 2070, 141
4415, 2070, 2217, 141
4416, 144, 2278, 145
4417, 562, 2278, 144
4418, 145, 2086, 571
4419, 145, 2278, 2086
4420, 148, 2044, 147
4421, 2044, 2203, 147
4422, 1833, 2044, 148
4423, 171, 1929, 1874
4424, 171, 2223, 1929
4425, 1894, 2188, 191
4426, 191, 2188, 1921
4427, 193, 2213, 1893
4428, 1920, 2213, 193
4429, 238, 2137, 237
4430, 237, 2035, 2034
4431, 237, 2137, 2035
4432, 1806, 1861, 238
4433, 1861, 2137, 238
4434, 242, 2157, 241
4435, 241, 2078, 2066
4436, 241, 2157, 2078
4437, 2000, 2070, 242
4438, 2070, 2157, 242
4439, 246, 2159, 245
4440, 245, 1812, 1805
4441, 245, 2159, 1812
4442, 2041, 2175, 246
4443, 246, 2175, 2159
4444, 250, 2162, 249
4445, 249, 2086, 2017
4446, 249, 2162, 2086
4447, 1948, 2100, 250
4448, 2100, 2162, 250
4449, 254, 2161, 253
4450, 253, 2101, 1947
4451, 253, 2161, 2101
4452, 2018, 2085, 254
4453, 2085, 2161, 254
4454, 258, 2160, 257
4455, 257, 2174, 2040
4456, 2160, 2174, 257
4457, 1804, 1813, 258
4458, 1813, 2160, 258
4459, 262, 2148, 261
4460, 261, 2071, 2001
4461, 261, 2148, 2071
4462, 2065, 2079, 262
4463, 2079, 2148, 262
4464, 266, 2136, 265
4465, 265, 1860, 1807
4466, 265, 2136, 1860
4467, 2037, 2038, 266
4468, 2038, 2136, 266
4469, 270, 1917, 269
4470, 1917, 2069, 269
4471, 2069, 2152, 269
4472, 1841, 2144, 270
4473, 270, 2144, 1917
4474, 274, 2247, 273
4475, 273, 2246, 2139
4476, 273, 2247, 2246
4477, 2179, 2277, 274
4478, 274, 2277, 2247
4479, 278, 2268, 277
4480, 277, 2268, 2180
4481, 278, 2138, 358
4482, 358, 2268, 278
4483, 282, 1918, 281
4484, 281, 2145, 1840
4485, 1918, 2145, 281
4486, 282, 2068, 1918
4487, 282, 2151, 2068
4488, 340, 2169, 339
4489, 339, 2169, 1832
4490, 340, 2243, 2169
4491, 341, 2013, 1931
4492, 341, 2260, 2013
4493, 349, 2015, 350
4494, 349, 2270, 2015
4495, 350, 2061, 351
4496, 2015, 2061, 350
4497, 351, 2014, 352
4498, 351, 2061, 2014
4499, 352, 2060, 353
4500, 2014, 2060, 352
4501, 353, 2025, 354
4502, 353, 2060, 2025
4503, 354, 2025, 1982
4504, 356, 2207, 355
4505, 355, 2207, 1835
4506, 357, 2128, 356
4507, 2128, 2183, 356
4508, 2183, 2207, 356
4509, 358, 2138, 357
4510, 357, 2138, 2128
4511, 368, 2246, 367
4512, 2246, 2247, 367
4513, 369, 2129, 368
4514, 2129, 2246, 368
4515, 370, 2206, 369
4516, 369, 2184, 2129
4517, 369, 2206, 2184
4518, 1834, 2206, 370
4519, 372, 1986, 371
4520, 1986, 1988, 371
4521, 1988, 2150, 371
4522, 372, 1987, 1986
4523, 372, 2134, 1987
4524, 376, 2123, 375
4525, 375, 1808, 1801
4526, 375, 2123, 1808
4527, 1803, 2140, 376
4528, 376, 2140, 2123
4529, 384, 2124, 383
4530, 383, 2141, 1802
4531, 2124, 2141, 383
4532, 1800, 1810, 384
4533, 1810, 2124, 384
4534, 388, 1983, 387
4535, 1983, 1984, 387
4536, 1984, 2132, 387
4537, 388, 1985, 1983
4538, 388, 2149, 1985
4539, 399, 2050, 398
4540, 398, 2050, 1827
4541, 400, 1932, 399
4542, 1932, 2050, 399
4543, 400, 2203, 1932
4544, 409, 2056, 408
4545, 408, 2056, 1878
4546, 410, 2103, 409
4547, 409, 2252, 2056
4548, 2103, 2252, 409
4549, 411, 2081, 410
4550, 2081, 2103, 410
4551, 1845, 2081, 411
4552, 416, 2242, 415
4553, 2242, 2243, 415
4554, 417, 2077, 416
4555, 2077, 2242, 416
4556, 1826, 2077, 417
4557, 427, 2083, 426
4558, 426, 2083, 1844
4559, 428, 2104, 427
4560, 427, 2104, 2083
4561, 429, 2055, 428
4562, 2055, 2239, 428
4563, 428, 2239, 2104
4564, 1877, 2055, 429
4565, 432, 1866, 431
4566, 1866, 2265, 431
4567, 433, 2026, 432
4568, 432, 2026, 1866
4569, 434, 2030, 433
4570, 433, 2280, 2026
4571, 2030, 2280, 433
4572, 2003, 2030, 434
4573, 446, 1867, 447
4574, 446, 2266, 1867
4575, 447, 2027, 448
4576, 1867, 2027, 447
4577, 448, 2031, 449
4578, 2027, 2281, 448
4579, 448, 2281, 2031
4580, 449, 2031, 2002
4581, 450, 2209, 451
4582, 450, 2259, 2209
4583, 451, 2151, 452
4584, 2068, 2151, 451
4585, 451, 2209, 2068
4586, 473, 2152, 474
4587, 474, 2208, 475
4588, 474, 2152, 2069
4589, 2069, 2208, 474
4590, 2208, 2258, 475
4591, 490, 2121, 2001
4592, 2001, 2218, 490
4593, 500, 2079, 501
4594, 2071, 2148, 500
4595, 500, 2148, 2079
4596, 501, 2080, 502
4597, 2079, 2080, 501
4598, 502, 2111, 503
4599, 2080, 2228, 502
4600, 502, 2228, 2111
4601, 503, 2190, 504
4602, 2111, 2112, 503
4603, 2112, 2190, 503
4604, 504, 2210, 505
4605, 2190, 2210, 504
4606, 505, 2221, 506
4607, 2210, 2221, 505
4608, 506, 2051, 507
4609, 2023, 2051, 506
4610, 506, 2221, 2023
4611, 507, 2101, 508
4612, 2051, 2101, 507
4613, 508, 2161, 2085
4614, 2101, 2161, 508
4615, 2000, 2120, 509
4616, 509, 2217, 2000
4617, 537, 2192, 538
4618, 2018, 2192, 537
4619, 537, 2279, 2018
4620, 538, 2020, 539
4621, 538, 2174, 2020
4622, 2040, 2174, 538
4623, 538, 2192, 2040
4624, 539, 2119, 540
4625, 2020, 2119, 539
4626, 540, 2231, 541
4627, 540, 2119, 2097
4628, 2097, 2231, 540
4629, 541, 2125, 542
4630, 541, 2231, 2125
4631, 542, 1822, 543
4632, 542, 2125, 1822
4633, 543, 2237, 544
4634, 1822, 2237, 543
4635, 544, 2283, 545
4636, 2237, 2283, 544
4637, 545, 2233, 546
4638, 2008, 2010, 545
4639, 545, 2283, 2008
4640, 2010, 2233, 545
4641, 546, 2263, 547
4642, 2233, 2263, 546
4643, 547, 2025, 548
4644, 547, 2263, 2025
4645, 548, 2060, 549
4646, 2025, 2060, 548
4647, 549, 2014, 550
4648, 549, 2060, 2014
4649, 550, 2061, 551
4650, 2014, 2061, 550
4651, 551, 2015, 552
4652, 551, 2061, 2015
4653, 552, 2158, 553
4654, 2015, 2158, 552
4655, 553, 2057, 554
4656, 553, 2158, 2057
4657, 554, 1995, 555
4658, 554, 2057, 1995
4659, 555, 2047, 556
4660, 1995, 2047, 555
4661, 556, 1823, 557
4662, 556, 2047, 1823
4663, 557, 2116, 558
4664, 1823, 2116, 557
4665, 558, 2227, 559
4666, 2116, 2227, 558
4667, 559, 2113, 560
4668, 2099, 2113, 559
4669, 559, 2227, 2099
4670, 560, 2019, 561
4671, 560, 2113, 2019
4672, 561, 2041, 562
4673, 2019, 2175, 561
4674, 561, 2175, 2041
4675, 562, 2041, 2017
4676, 2017, 2278, 562
4677, 564, 2078, 563
4678, 563, 2157, 2070
4679, 2078, 2157, 563
4680, 565, 2178, 564
4681, 564, 2178, 2078
4682, 566, 2109, 565
4683, 2109, 2229, 565
4684, 565, 2229, 2178
4685, 567, 2189, 566
4686, 566, 2110, 2109
4687, 566, 2189, 2110
4688, 568, 2211, 567
4689, 567, 2211, 2189
4690, 569, 2220, 568
4691, 568, 2220, 2211
4692, 570, 2052, 569
4693, 569, 2052, 2021
4694, 2021, 2220, 569
4695, 571, 2100, 570
4696, 570, 2100, 2052
4697, 2086, 2162, 571
4698, 571, 2162, 2100
4699, 1800, 1811, 1810
4700, 1800, 1829, 1811
4701, 1800, 2131, 1829
4702, 1808, 1809, 1801
4703, 1809, 1831, 1801
4704, 1831, 2133, 1801
4705, 1802, 1854, 1853
4706, 1802, 1855, 1854
4707, 1802, 2141, 1855
4708, 1846, 1847, 1803
4709, 1847, 1848, 1803
4710, 1848, 2140, 1803
4711, 1804, 1814, 1813
4712, 1804, 1830, 1814
4713, 1804, 2093, 1830
4714, 1812, 1818, 1805
4715, 1818, 1828, 1805
4716, 1828, 2094, 1805
4717, 1859, 2063, 1806
4718, 1806, 1868, 1861
4719, 1806, 2063, 1868
4720, 1807, 2064, 1852
4721, 1860, 1869, 1807
4722, 1869, 2064, 1807
4723, 1808, 1824, 1809
4724, 1808, 2198, 1824
4725, 2123, 2198, 1808
4726, 1824, 2163, 1809
4727, 1809, 1843, 1831
4728, 1809, 2163, 1843
4729, 1811, 1825, 1810
4730, 1825, 2199, 1810
4731, 1810, 2199, 2124
4732, 1811, 2164, 1825
4733, 1829, 1842, 1811
4734, 1842, 2164, 1811
4735, 1812, 1819, 1818
4736, 1812, 1905, 1819
4737, 1812, 2159, 1905
4738, 1814, 1815, 1813
4739, 1815, 1906, 1813
4740, 1906, 2160, 1813
4741, 1814, 1816, 1815
4742, 1814, 2074, 1816
4743, 1830, 2074, 1814
4744, 1816, 1817, 1815
4745, 1817, 2168, 1815
4746, 1815, 2168, 1906
4747, 1816, 1838, 1817
4748, 1816, 2126, 1838
4749, 2074, 2126, 1816
4750, 1838, 1839, 1817
4751, 1839, 1881, 1817
4752, 1881, 2168, 1817
4753, 1819, 1820, 1818
4754, 1820, 2075, 1818
4755, 1818, 2075, 1828
4756, 1819, 1821, 1820
4757, 1819, 2167, 1821
4758, 1905, 2167, 1819
4759, 1821, 1836, 1820
4760, 1836, 2127, 1820
4761, 1820, 2127, 2075
4762, 1821, 1837, 1836
4763, 1821, 1879, 1837
4764, 1821, 2167, 1879
4765, 1822, 2125, 2067
4766, 2067, 2216, 1822
4767, 2216, 2237, 1822
4768, 2047, 2048, 1823
4769, 2048, 2049, 1823
4770, 2049, 2116, 1823
4771, 2090, 2163, 1824
4772, 1824, 2264, 2090
4773, 2198, 2264, 1824
4774, 2164, 2267, 1825
4775, 1825, 2267, 2199
4776, 1826, 2202, 2077
4777, 2105, 2202, 1826
4778, 1826, 2225, 2105
4779, 2050, 2222, 1827
4780, 1827, 2222, 2102
4781, 2102, 2226, 1827
4782, 1828, 2075, 2029
4783, 2029, 2245, 1828
4784, 1828, 2245, 2094
4785, 1829, 1864, 1842
4786, 1829, 1865, 1864
4787, 1829, 2131, 1865
4788, 2028, 2074, 1830
4789, 1830, 2244, 2028
4790, 2093, 2244, 1830
4791, 1843, 1862, 1831
4792, 1862, 1863, 1831
4793, 1863, 2133, 1831
4794, 1832, 1876, 1875
4795, 1832, 1907, 1876
4796, 1832, 2169, 1907
4797, 1833, 2215, 2044
4798, 1833, 2219, 2215
4799, 1833, 2253, 2219
4800, 1834, 2142, 2072
4801, 2072, 2206, 1834
4802, 1834, 2271, 2142
4803, 2073, 2143, 1835
4804, 1835, 2207, 2073
4805, 2143, 2272, 1835
4806, 1837, 1887, 1836
4807, 1887, 1952, 1836
4808, 1952, 2127, 1836
4809, 1879, 1880, 1837
4810, 1880, 2106, 1837
4811, 1837, 2106, 1887
4812, 1838, 1888, 1839
4813, 1838, 1949, 1888
4814, 1838, 2126, 1949
4815, 1839, 1882, 1881
4816, 1839, 2118, 1882
4817, 1888, 2118, 1839
4818, 1840, 1912, 1910
4819, 1840, 1946, 1912
4820, 1840, 2145, 1946
4821, 1909, 1911, 1841
4822, 1911, 1945, 1841
4823, 1945, 2144, 1841
4824, 1864, 1899, 1842
4825, 1899, 1900, 1842
4826, 1900, 2164, 1842
4827, 1843, 1901, 1862
4828, 1843, 1902, 1901
4829, 1843, 2163, 1902
4830, 1844, 2032, 1873
4831, 1844, 2084, 2032
4832, 2083, 2084, 1844
4833, 1872, 2033, 1845
4834, 2033, 2082, 1845
4835, 1845, 2082, 2081
4836, 1846, 2096, 1847
4837, 1846, 2232, 2096
4838, 2150, 2232, 1846
4839, 1847, 1849, 1848
4840, 1847, 1850, 1849
4841, 1847, 2096, 1850
4842, 1849, 1883, 1848
4843, 1883, 1922, 1848
4844, 1922, 2140, 1848
4845, 1850, 1851, 1849
4846, 1851, 2171, 1849
4847, 1849, 2171, 1883
4848, 1850, 1895, 1851
4849, 1850, 1897, 1895
4850, 1850, 2096, 1897
4851, 1895, 1966, 1851
4852, 1966, 2004, 1851
4853, 2004, 2171, 1851
4854, 2064, 2186, 1852
4855, 1852, 2276, 2065
4856, 2186, 2276, 1852
4857, 1854, 2095, 1853
4858, 2095, 2230, 1853
4859, 1853, 2230, 2149
4860, 1855, 1856, 1854
4861, 1856, 1857, 1854
4862, 1857, 2095, 1854
4863, 1855, 1884, 1856
4864, 1855, 1923, 1884
4865, 1855, 2141, 1923
4866, 1856, 1858, 1857
4867, 1856, 2170, 1858
4868, 1884, 2170, 1856
4869, 1858, 1896, 1857
4870, 1896, 1898, 1857
4871, 1898, 2095, 1857
4872, 1858, 1965, 1896
4873, 1858, 2005, 1965
4874, 1858, 2170, 2005
4875, 1859, 2185, 2063
4876, 2066, 2275, 1859
4877, 1859, 2275, 2185
4878, 1860, 1889, 1869
4879, 1860, 1928, 1889
4880, 1860, 2136, 1928
4881, 1868, 1891, 1861
4882, 1891, 1927, 1861
4883, 1927, 2137, 1861
4884, 1862, 1904, 1863
4885, 1901, 2177, 1862
4886, 1862, 2177, 1904
4887, 1904, 2012, 1863
4888, 2012, 2249, 1863
4889, 1863, 2134, 2133
4890, 1863, 2249, 2134
4891, 1865, 1903, 1864
4892, 1864, 2176, 1899
4893, 1903, 2176, 1864
4894, 1865, 2011, 1903
4895, 1865, 2248, 2011
4896, 2131, 2132, 1865
4897, 2132, 2248, 1865
4898, 2026, 2172, 1866
4899, 1866, 2195, 2165
4900, 2165, 2265, 1866
4901, 2172, 2195, 1866
4902, 1867, 2173, 2027
4903, 2166, 2196, 1867
4904, 1867, 2266, 2166
4905, 1867, 2196, 2173
4906, 1868, 1892, 1891
4907, 1868, 2135, 1892
4908, 2063, 2135, 1868
4909, 1889, 1890, 1869
4910, 1890, 2130, 1869
4911, 1869, 2130, 2064
4912, 1886, 1938, 1870
4913, 1938, 2043, 1870
4914, 2043, 2241, 1870
4915, 1871, 1937, 1885
4916, 1871, 2042, 1937
4917, 1871, 2240, 2042
4918, 1872, 2058, 2033
4919, 1872, 2108, 2058
4920, 1872, 2200, 2108
4921, 2032, 2059, 1873
4922, 2059, 2107, 1873
4923, 2107, 2201, 1873
4924, 1929, 1930, 1874
4925, 1930, 2088, 1874
4926, 2088, 2253, 1874
4927, 1876, 1919, 1875
4928, 1919, 2013, 1875
4929, 2013, 2260, 1875
4930, 1907, 1908, 1876
4931, 1908, 2194, 1876
4932, 1876, 2194, 1919
4933, 2053, 2236, 1877
4934, 1877, 2224, 2055
4935, 1877, 2236, 2224
4936, 1878, 2191, 2054
4937, 2056, 2117, 1878
4938, 2117, 2269, 1878
4939, 1878, 2269, 2191
4940, 1879, 1913, 1880
4941, 1879, 1962, 1913
4942, 1879, 2167, 1962
4943, 1913, 1914, 1880
4944, 1914, 1924, 1880
4945, 1924, 2106, 1880
4946, 1882, 1915, 1881
4947, 1915, 1963, 1881
4948, 1963, 2168, 1881
4949, 1882, 1916, 1915
4950, 1882, 1925, 1916
4951, 1882, 2118, 1925
4952, 1883, 1933, 1922
4953, 1883, 1934, 1933
4954, 1883, 2171, 1934
4955, 1923, 1935, 1884
4956, 1935, 1936, 1884
4957, 1936, 2170, 1884
4958, 1937, 1939, 1885
4959, 1939, 1942, 1885
4960, 1942, 2146, 1885
4961, 1886, 1940, 1938
4962, 1886, 1941, 1940
4963, 1886, 2147, 1941
4964, 1887, 1953, 1952
4965, 1887, 1971, 1953
4966, 1887, 2106, 1971
4967, 1949, 1950, 1888
4968, 1950, 1972, 1888
4969, 1972, 2118, 1888
4970, 1889, 1957, 1890
4971, 1928, 2155, 1889
4972, 1889, 2155, 1957
4973, 1957, 1960, 1890
4974, 1960, 2182, 1890
4975, 1890, 2182, 2130
4976, 1892, 1958, 1891
4977, 1891, 2156, 1927
4978, 1958, 2156, 1891
4979, 1892, 1959, 1958
4980, 1892, 2181, 1959
4981, 2135, 2282, 1892
4982, 1892, 2282, 2181
4983, 1893, 2214, 2114
4984, 2114, 2271, 1893
4985, 2213, 2214, 1893
4986, 1894, 2272, 2115
4987, 2115, 2273, 1894
4988, 1894, 2273, 2188
4989, 1897, 1955, 1895
4990, 1955, 2154, 1895
4991, 1895, 2154, 1966
4992, 1896, 1956, 1898
4993, 1896, 2153, 1956
4994, 1965, 2153, 1896
4995, 1897, 1989, 1955
4996, 1897, 1994, 1989
4997, 1897, 2096, 1994
4998, 1956, 1991, 1898
4999, 1991, 1993, 1898
5000, 1993, 2095, 1898
5001, 1899, 1980, 1900
5002, 1899, 2029, 1980
5003, 1899, 2176, 2029
5004, 1980, 2255, 1900
5005, 2091, 2164, 1900
5006, 1900, 2255, 2091
5007, 1902, 1979, 1901
5008, 1979, 2028, 1901
5009, 2028, 2177, 1901
5010, 1902, 2254, 1979
5011, 1902, 2163, 2089
5012, 2089, 2254, 1902
5013, 2011, 2021, 1903
5014, 2021, 2022, 1903
5015, 2022, 2176, 1903
5016, 1904, 2023, 2012
5017, 1904, 2024, 2023
5018, 1904, 2177, 2024
5019, 2159, 2175, 1905
5020, 1905, 2204, 2167
5021, 2175, 2204, 1905
5022, 1906, 2174, 2160
5023, 2168, 2205, 1906
5024, 1906, 2205, 2174
5025, 1907, 1961, 1908
5026, 1907, 2016, 1961
5027, 1907, 2169, 2016
5028, 1961, 2212, 1908
5029, 2187, 2194, 1908
5030, 1908, 2212, 2187
5031, 1909, 1944, 1911
5032, 1909, 2129, 1944
5033, 1909, 2139, 2129
5034, 1912, 1943, 1910
5035, 1943, 2128, 1910
5036, 2128, 2138, 1910
5037, 1944, 1968, 1911
5038, 1911, 2172, 1945
5039, 1968, 2172, 1911
5040, 1912, 1969, 1943
5041, 1946, 2173, 1912
5042, 1912, 2173, 1969
5043, 1913, 1978, 1914
5044, 1962, 2099, 1913
5045, 1913, 2099, 1978
5046, 1914, 1964, 1924
5047, 1914, 2274, 1964
5048, 1978, 2274, 1914
5049, 1916, 1981, 1915
5050, 1915, 2097, 1963
5051, 1981, 2097, 1915
5052, 1925, 1926, 1916
5053, 1926, 2067, 1916
5054, 1916, 2067, 1981
5055, 1917, 2234, 2069
5056, 2144, 2234, 1917
5057, 2068, 2235, 1918
5058, 1918, 2235, 2145
5059, 1919, 2122, 2013
5060, 2048, 2122, 1919
5061, 1919, 2194, 2048
5062, 2034, 2035, 1920
5063, 2035, 2036, 1920
5064, 2036, 2213, 1920
5065, 1921, 2038, 2037
5066, 1921, 2039, 2038
5067, 1921, 2188, 2039
5068, 1933, 1998, 1922
5069, 1998, 2198, 1922
5070, 2123, 2140, 1922
5071, 1922, 2198, 2123
5072, 1923, 1999, 1935
5073, 1923, 2199, 1999
5074, 1923, 2141, 2124
5075, 2124, 2199, 1923
5076, 1964, 1970, 1924
5077, 1970, 2105, 1924
5078, 2105, 2106, 1924
5079, 1925, 1973, 1926
5080, 1925, 2102, 1973
5081, 1925, 2118, 2102
5082, 1973, 1974, 1926
5083, 1974, 1975, 1926
5084, 1975, 2067, 1926
5085, 2076, 2137, 1927
5086, 1927, 2224, 2076
5087, 2156, 2224, 1927
5088, 2117, 2155, 1928
5089, 1928, 2193, 2117
5090, 2136, 2193, 1928
5091, 1929, 2008, 1930
5092, 1929, 2010, 2008
5093, 1929, 2223, 2010
5094, 2008, 2009, 1930
5095, 2009, 2087, 1930
5096, 2087, 2088, 1930
5097, 1931, 2057, 1967
5098, 2013, 2238, 1931
5099, 1931, 2238, 2057
5100, 2044, 2197, 1932
5101, 1932, 2203, 2044
5102, 1932, 2197, 2050
5103, 1934, 2033, 1933
5104, 1933, 2058, 1998
5105, 2033, 2058, 1933
5106, 1934, 2082, 2033
5107, 1934, 2250, 2082
5108, 2171, 2250, 1934
5109, 1935, 2032, 1936
5110, 1999, 2059, 1935
5111, 1935, 2059, 2032
5112, 2032, 2084, 1936
5113, 2084, 2251, 1936
5114, 1936, 2251, 2170
5115, 1937, 1996, 1939
5116, 1937, 2165, 1996
5117, 2042, 2165, 1937
5118, 1940, 1997, 1938
5119, 1997, 2166, 1938
5120, 1938, 2166, 2043
5121, 1939, 2142, 1942
5122, 1996, 2072, 1939
5123, 2072, 2142, 1939
5124, 1941, 2143, 1940
5125, 1940, 2073, 1997
5126, 1940, 2143, 2073
5127, 2054, 2115, 1941
5128, 1941, 2147, 2054
5129, 2115, 2143, 1941
5130, 1942, 2114, 2053
5131, 2053, 2146, 1942
5132, 1942, 2142, 2114
5133, 1969, 2006, 1943
5134, 2006, 2183, 1943
5135, 1943, 2183, 2128
5136, 1944, 2007, 1968
5137, 1944, 2184, 2007
5138, 2129, 2184, 1944
5139, 2030, 2144, 1945
5140, 1945, 2280, 2030
5141, 2172, 2280, 1945
5142, 1946, 2145, 2031
5143, 2031, 2281, 1946
5144, 1946, 2281, 2173
5145, 2051, 2093, 1947
5146, 1947, 2101, 2051
5147, 1948, 2094, 2052
5148, 2052, 2100, 1948
5149, 1949, 1951, 1950
5150, 1949, 2089, 1951
5151, 1949, 2254, 2089
5152, 2126, 2254, 1949
5153, 1951, 2108, 1950
5154, 1950, 2046, 1972
5155, 1950, 2108, 2046
5156, 2089, 2090, 1951
5157, 2090, 2262, 1951
5158, 1951, 2262, 2108
5159, 1953, 1954, 1952
5160, 1954, 2091, 1952
5161, 2091, 2255, 1952
5162, 1952, 2255, 2127
5163, 1953, 2107, 1954
5164, 1971, 2045, 1953
5165, 2045, 2107, 1953
5166, 1954, 2092, 2091
5167, 1954, 2261, 2092
5168, 2107, 2261, 1954
5169, 1989, 1990, 1955
5170, 1990, 2186, 1955
5171, 1955, 2186, 2154
5172, 1956, 1992, 1991
5173, 1956, 2185, 1992
5174, 2153, 2185, 1956
5175, 1957, 2103, 1960
5176, 1957, 2252, 2103
5177, 2155, 2252, 1957
5178, 1959, 2104, 1958
5179, 2104, 2239, 1958
5180, 1958, 2239, 2156
5181, 1959, 2084, 2083
5182, 2083, 2104, 1959
5183, 1959, 2181, 2084
5184, 2081, 2082, 1960
5185, 1960, 2103, 2081
5186, 2082, 2182, 1960
5187, 2016, 2242, 1961
5188, 2077, 2202, 1961
5189, 1961, 2242, 2077
5190, 2202, 2212, 1961
5191, 1962, 2113, 2099
5192, 1962, 2204, 2113
5193, 2167, 2204, 1962
5194, 2097, 2119, 1963
5195, 2119, 2205, 1963
5196, 1963, 2205, 2168
5197, 1964, 2187, 1970
5198, 2098, 2187, 1964
5199, 1964, 2274, 2098
5200, 2005, 2282, 1965
5201, 2135, 2153, 1965
5202, 1965, 2282, 2135
5203, 1966, 2182, 2004
5204, 1966, 2154, 2130
5205, 2130, 2182, 1966
5206, 2057, 2158, 1967
5207, 2158, 2270, 1967
5208, 2007, 2257, 1968
5209, 1968, 2195, 2172
5210, 1968, 2257, 2195
5211, 1969, 2256, 2006
5212, 2173, 2196, 1969
5213, 2196, 2256, 1969
5214, 1970, 2202, 2105
5215, 2187, 2212, 1970
5216, 1970, 2212, 2202
5217, 1971, 2225, 2045
5218, 1971, 2106, 2105
5219, 2105, 2225, 1971
5220, 2046, 2226, 1972
5221, 2102, 2118, 1972
5222, 1972, 2226, 2102
5223, 1973, 2062, 1974
5224, 1973, 2222, 2062
5225, 2102, 2222, 1973
5226, 1974, 1976, 1975
5227, 1974, 1977, 1976
5228, 1974, 2062, 1977
5229, 1976, 2087, 1975
5230, 1975, 2216, 2067
5231, 2087, 2216, 1975
5232, 1977, 2219, 1976
5233, 1976, 2088, 2087
5234, 1976, 2219, 2088
5235, 2062, 2197, 1977
5236, 2197, 2215, 1977
5237, 2215, 2219, 1977
5238, 1978, 2116, 2049
5239, 2049, 2274, 1978
5240, 2099, 2227, 1978
5241, 1978, 2227, 2116
5242, 1979, 2074, 2028
5243, 1979, 2126, 2074
5244, 1979, 2254, 2126
5245, 2029, 2075, 1980
5246, 2075, 2127, 1980
5247, 2127, 2255, 1980
5248, 2067, 2125, 1981
5249, 1981, 2231, 2097
5250, 2125, 2231, 1981
5251, 2025, 2263, 1982
5252, 1982, 2233, 2223
5253, 1982, 2263, 2233
5254, 1983, 2189, 1984
5255, 1985, 2189, 1983
5256, 1984, 2248, 2132
5257, 2189, 2211, 1984
5258, 2211, 2248, 1984
5259, 2110, 2189, 1985
5260, 1985, 2230, 2110
5261, 2149, 2230, 1985
5262, 1987, 2190, 1986
5263, 1986, 2190, 1988
5264, 2134, 2249, 1987
5265, 1987, 2210, 2190
5266, 1987, 2249, 2210
5267, 1988, 2190, 2112
5268, 2112, 2232, 1988
5269, 1988, 2232, 2150
5270, 1989, 2228, 1990
5271, 1994, 2111, 1989
5272, 2111, 2228, 1989
5273, 1990, 2228, 2080
5274, 2080, 2276, 1990
5275, 1990, 2276, 2186
5276, 1992, 2229, 1991
5277, 1991, 2109, 1993
5278, 1991, 2229, 2109
5279, 2178, 2229, 1992
5280, 1992, 2275, 2178
5281, 2185, 2275, 1992
5282, 1993, 2230, 2095
5283, 2109, 2110, 1993
5284, 2110, 2230, 1993
5285, 2096, 2232, 1994
5286, 1994, 2112, 2111
5287, 1994, 2232, 2112
5288, 1995, 2122, 2047
5289, 2057, 2238, 1995
5290, 1995, 2238, 2122
5291, 1996, 2257, 2072
5292, 2165, 2195, 1996
5293, 2195, 2257, 1996
5294, 2073, 2256, 1997
5295, 1997, 2196, 2166
5296, 1997, 2256, 2196
5297, 2058, 2262, 1998
5298, 1998, 2264, 2198
5299, 2262, 2264, 1998
5300, 1999, 2261, 2059
5301, 2199, 2267, 1999
5302, 1999, 2267, 2261
5303, 2000, 2217, 2070
5304, 2071, 2218, 2001
5305, 2031, 2235, 2002
5306, 2002, 2235, 2209
5307, 2209, 2259, 2002
5308, 2003, 2234, 2030
5309, 2208, 2234, 2003
5310, 2003, 2258, 2208
5311, 2004, 2250, 2171
5312, 2182, 2250, 2004
5313, 2170, 2251, 2005
5314, 2005, 2251, 2181
5315, 2181, 2282, 2005
5316, 2073, 2207, 2006
5317, 2006, 2256, 2073
5318, 2006, 2207, 2183
5319, 2007, 2206, 2072
5320, 2072, 2257, 2007
5321, 2184, 2206, 2007
5322, 2008, 2283, 2009
5323, 2009, 2237, 2087
5324, 2009, 2283, 2237
5325, 2223, 2233, 2010
5326, 2011, 2220, 2021
5327, 2011, 2248, 2220
5328, 2023, 2221, 2012
5329, 2221, 2249, 2012
5330, 2122, 2238, 2013
5331, 2015, 2270, 2158
5332, 2169, 2243, 2016
5333, 2016, 2243, 2242
5334, 2086, 2278, 2017
5335, 2018, 2279, 2085
5336, 2113, 2204, 2019
5337, 2019, 2204, 2175
5338, 2020, 2205, 2119
5339, 2174, 2205, 2020
5340, 2021, 2052, 2022
5341, 2052, 2094, 2022
5342, 2094, 2245, 2022
5343, 2022, 2245, 2176
5344, 2024, 2051, 2023
5345, 2024, 2093, 2051
5346, 2024, 2244, 2093
5347, 2177, 2244, 2024
5348, 2026, 2280, 2172
5349, 2173, 2281, 2027
5350, 2028, 2244, 2177
5351, 2176, 2245, 2029
5352, 2030, 2234, 2144
5353, 2145, 2235, 2031
5354, 2035, 2076, 2036
5355, 2035, 2137, 2076
5356, 2076, 2236, 2036
5357, 2036, 2214, 2213
5358, 2036, 2236, 2214
5359, 2039, 2193, 2038
5360, 2038, 2193, 2136
5361, 2188, 2191, 2039
5362, 2191, 2269, 2039
5363, 2039, 2269, 2193
5364, 2042, 2265, 2165
5365, 2166, 2266, 2043
5366, 2044, 2215, 2197
5367, 2045, 2201, 2107
5368, 2108, 2200, 2046
5369, 2047, 2122, 2048
5370, 2048, 2098, 2049
5371, 2048, 2194, 2098
5372, 2098, 2274, 2049
5373, 2050, 2197, 2062
5374, 2062, 2222, 2050
5375, 2114, 2214, 2053
5376, 2214, 2236, 2053
5377, 2054, 2273, 2115
5378, 2191, 2273, 2054
5379, 2055, 2224, 2156
5380, 2156, 2239, 2055
5381, 2056, 2155, 2117
5382, 2056, 2252, 2155
5383, 2108, 2262, 2058
5384, 2059, 2261, 2107
5385, 2063, 2153, 2135
5386, 2063, 2185, 2153
5387, 2130, 2154, 2064
5388, 2154, 2186, 2064
5389, 2065, 2080, 2079
5390, 2065, 2276, 2080
5391, 2078, 2178, 2066
5392, 2178, 2275, 2066
5393, 2209, 2235, 2068
5394, 2069, 2234, 2208
5395, 2224, 2236, 2076
5396, 2082, 2250, 2182
5397, 2181, 2251, 2084
5398, 2087, 2237, 2216
5399, 2219, 2253, 2088
5400, 2089, 2163, 2090
5401, 2090, 2264, 2262
5402, 2092, 2164, 2091
5403, 2092, 2267, 2164
5404, 2261, 2267, 2092
5405, 2098, 2194, 2187
5406, 2142, 2271, 2114
5407, 2115, 2272, 2143
5408, 2193, 2269, 2117
5409, 2139, 2246, 2129
5410, 2188, 2273, 2191
5411, 2210, 2249, 2221
5412, 2220, 2248, 2211
*ELEMENT, type=CPS3, ELSET=Surface77
5413, 144, 2284, 143
5414, 143, 2284, 581
5415, 145, 2284, 144
5416, 146, 2284, 145
5417, 581, 2284, 146
*ELEMENT, type=C3D4, ELSET=Volume1
5418, 2311, 2329, 1752, 2388
5419, 1191, 1153, 1559, 727
5420, 706, 1611, 1686, 2359
5421, 2287, 2297, 1457, 2388
5422, 1182, 2303, 112, 2375
5423, 704, 219, 1448, 2350
5424, 781, 2334, 1070, 2366
5425, 802, 800, 902, 2306
5426, 705, 1448, 219, 2317
5427, 2245, 2029, 1578, 2419
5428, 798, 903, 789, 2303
5429, 923, 2334, 2318, 2366
5430, 115, 2306, 1181, 2379
5431, 631, 634, 810, 630
5432, 2275, 2401, 2185, 2436
5433, 1471, 115, 1181, 2379
5434, 2029, 1828, 1606, 2075
5435, 643, 647, 642, 792
5436, 894, 2301, 895, 2328
5437, 1472, 1182, 112, 2375
5438, 2290, 2343, 2299, 2385
5439, 1181, 115, 429, 2306
5440, 1157, 1161, 2091, 2430
5441, 1863, 2396, 2012, 2403
5442, 1652, 1484, 2314, 2326
5443, 1287, 2250, 1225, 2409
5444, 978, 1067, 961, 2323
5445, 1998, 2413, 2339, 2414
5446, 1742, 2297, 1421, 2350
5447, 978, 2302, 1067, 2323
5448, 1807, 1869, 1860, 2397
5449, 1356, 1269, 1355, 449
5450, 1354, 434, 1353, 1268
5451, 926, 2321, 2289, 2357
5452, 1191, 432, 1153, 727
5453, 2318, 2334, 923, 2425
5454, 976, 1070, 2334, 2366
5455, 2300, 2342, 2289, 2384
5456, 449, 1269, 1355, 302
5457, 2339, 2413, 1595, 2414
5458, 1158, 1999, 1708, 2335
5459, 907, 2285, 973, 2323
5460, 2074, 1830, 1814, 1324
5461, 1828, 1818, 1325, 2075
5462, 2290, 2302, 928, 2353
5463, 2285, 2313, 907, 2340
5464, 667, 918, 234, 2293
5465, 2306, 2358, 896, 2371
5466, 1606, 1578, 2245, 2029
5467, 190, 2311, 1752, 2388
5468, 112, 1182, 408, 2303
5469, 971, 2315, 2326, 2355
5470, 2089, 1163, 1155, 2432
5471, 2075, 1980, 2127, 2418
5472, 2074, 2126, 1979, 2422
5473, 690, 1860, 1667, 2397
5474, 1686, 706, 2359, 2379
5475, 1611, 1731, 1686, 2359
5476, 2245, 1828, 1606, 2029
5477, 1652, 2314, 838, 2326
5478, 704, 1448, 1421, 2350
5479, 1182, 1472, 112, 1217
5480, 973, 2285, 907, 2340
5481, 1047, 998, 1051, 313
5482, 999, 1052, 301, 1048
5483, 1563, 1814, 1830, 1324
5484, 1818, 1325, 1562, 1828
5485, 2313, 2329, 2311, 2388
5486, 907, 2285, 2323, 2402
5487, 1181, 429, 711, 2306
5488, 714, 2303, 1182, 2375
5489, 2289, 2321, 926, 2342
5490, 971, 2326, 2312, 2355
5491, 1611, 706, 2297, 2359
5492, 1421, 1448, 1742, 2350
5493, 838, 2326, 2314, 2415
5494, 432, 1153, 1154, 1167
5495, 1132, 727, 1153, 2308
5496, 959, 1066, 979, 2400
5497, 1998, 1711, 2413, 2414
5498, 954, 1002, 919, 2303
5499, 1558, 1151, 1192, 2399
5500, 976, 2334, 923, 2366
5501, 2311, 2313, 2285, 2329
5502, 1865, 1474, 2248, 2337
5503, 1818, 1238, 1812, 1805
5504, 1804, 1813, 1814, 1236
5505, 1471, 114, 115, 2379
5506, 940, 2299, 2295, 2315
5507, 1324, 1563, 1814, 1236
5508, 1067, 2323, 2302, 2402
5509, 903, 919, 228, 954
5510, 1896, 2332, 1898, 2367
5511, 2294, 2300, 941, 2314
5512, 1607, 1563, 1830, 1324
5513, 1238, 1325, 1562, 1818
5514, 1325, 1606, 1562, 1828
5515, 1472, 112, 109, 2375
5516, 1051, 726, 1047, 313
5517, 1162, 1157, 2091, 1954
5518, 1820, 1705, 1325, 2075
5519, 449, 1356, 1269, 2304
5520, 434, 1268, 1354, 2305
5521, 928, 2302, 2290, 2343
5522, 1704, 2074, 1816, 1324
5523, 907, 2313, 2285, 2402
5524, 2293, 2297, 706, 2359
5525, 1325, 1238, 1301, 1818
5526, 1814, 1324, 1236, 1303
5527, 642, 645, 1025, 647
5528, 1667, 1860, 1676, 2397
5529, 1161, 1150, 2418, 2430
5530, 114, 2306, 115, 2379
5531, 1008, 2302, 928, 2343
5532, 781, 782, 1070, 2334
5533, 449, 1355, 724, 302
5534, 115, 1215, 1471, 1181
5535, 919, 662, 228, 2296
5536, 634, 632, 1024, 630
5537, 2074, 1830, 1607, 2435
5538, 2127, 1203, 1705, 2418
5539, 1606, 1359, 1562, 1828
5540, 1812, 1819, 1238, 1818
5541, 1818, 1820, 1325, 2075
5542, 2074, 1814, 1816, 1324
5543, 1813, 1815, 1814, 1236
5544, 1704, 1204, 2126, 2422
5545, 1733, 1466, 1771, 2327
5546, 676, 1199, 1238, 1812
5547, 1813, 685, 1200, 1236
5548, 112, 2303, 109, 2375
5549, 1030, 895, 935, 2296
5550, 1563, 1804, 1814, 1236
5551, 1818, 1562, 1238, 1805
5552, 926, 2321, 1007, 2342
5553, 690, 1807, 1860, 2397
5554, 1024, 810, 634, 630
5555, 1578, 2029, 2075, 2418
5556, 1225, 1287, 1284, 2250
5557, 2075, 2127, 1705, 2418
5558, 1199, 676, 2159, 1812
5559, 408, 1182, 714, 2303
5560, 2074, 1704, 2126, 2422
5561, 935, 997, 958, 2380
5562, 1857, 1898, 1896, 2332
5563, 976, 923, 2334, 2425
5564, 1819, 1238, 1239, 1812
5565, 1025, 642, 647, 792
5566, 2285, 2313, 2311, 2402
5567, 2181, 1233, 2365, 2421
5568, 918, 234, 955, 902
5569, 2296, 897, 2328, 2372
5570, 1542, 2300, 2294, 2314
5571, 1543, 2295, 2299, 2315
5572, 1860, 1889, 1676, 1869
5573, 938, 976, 923, 2366
5574, 1934, 2369, 1224, 2409
5575, 933, 2287, 2297, 2363
5576, 1708, 1935, 1349, 2387
5577, 1614, 2330, 1405, 2354
5578, 1224, 2369, 1934, 2413
5579, 1163, 2422, 1148, 2432
5580, 1542, 2294, 2300, 2433
5581, 1225, 2250, 1284, 2409
5582, 1543, 2299, 2295, 2434
5583, 1225, 1305, 1287, 2409
5584, 1421, 1742, 1346, 2297
5585, 1180, 689, 1860, 1667
5586, 1067, 961, 2323, 2402
5587, 1002, 954, 897, 2303
5588, 891, 2312, 614, 2355
5589, 988, 955, 918, 2306
5590, 2319, 2332, 1856, 2387
5591, 1181, 2306, 711, 2379
5592, 1804, 1814, 1830, 1563
5593, 1179, 1334, 2137, 2420
5594, 1067, 878, 961, 2402
5595, 1828, 1562, 1818, 1805
5596, 895, 2301, 2296, 2328
5597, 2136, 2193, 2038, 1375
5598, 1399, 1705, 1325, 1820
5599, 819, 728, 434, 2305
5600, 1708, 1999, 1593, 2335
5601, 1300, 2248, 1474, 2337
5602, 2245, 1578, 1381, 2419
5603, 2160, 1813, 685, 1200
5604, 1708, 1999, 1935, 2387
5605, 1816, 1704, 1324, 1398
5606, 976, 938, 1070, 2366
5607, 2091, 1954, 1157, 2430
5608, 959, 1066, 2400, 2405
5609, 934, 895, 894, 2301
5610, 988, 918, 2293, 2306
5611, 2250, 1934, 1284, 2409
5612, 1066, 959, 879, 2405
5613, 2318, 2334, 221, 2366
5614, 670, 1179, 2137, 2420
5615, 890, 613, 2312, 2356
5616, 1593, 1999, 1708, 2387
5617, 1704, 2422, 2074, 2435
5618, 1785, 1904, 1473, 2403
5619, 725, 827, 449, 2304
5620, 1238, 674, 1812, 1805
5621, 1002, 2296, 919, 2303
5622, 1684, 1559, 1353, 727
5623, 1473, 2012, 2396, 2403
5624, 1813, 1804, 684, 1236
5625, 874, 2294, 1050, 2314
5626, 190, 2313, 2311, 2388
5627, 1055, 2296, 897, 2328
5628, 743, 1454, 2297, 2388
5629, 2293, 2359, 706, 2379
5630, 1179, 670, 1556, 2420
5631, 1052, 723, 301, 1048
5632, 1738, 1691, 1619, 2420
5633, 1676, 1860, 1869, 2397
5634, 1359, 1606, 1381, 2245
5635, 875, 1049, 2295, 2315
5636, 1542, 2300, 1747, 2433
5637, 2074, 1607, 1704, 2435
5638, 1422, 2301, 716, 2442
5639, 2213, 2036, 1920, 1776
5640, 1819, 1301, 1238, 1818
5641, 734, 219, 2317, 2350
5642, 1543, 1748, 2299, 2434
5643, 1236, 1815, 1814, 1303
5644, 1018, 1046, 933, 2410
5645, 933, 2293, 1037, 2363
5646, 1855, 2319, 1856, 2387
5647, 928, 1008, 1005, 2302
5648, 1474, 1865, 1903, 2337
5649, 1448, 734, 219, 2317
5650, 446, 2338, 2286, 2424
5651, 896, 2293, 1061, 2358
5652, 896, 2306, 2293, 2358
5653, 2290, 2302, 731, 2316
5654, 2334, 2366, 781, 2389
5655, 632, 634, 1024, 2371
5656, 1347, 1422, 2301, 2441
5657, 1025, 647, 645, 2372
5658, 1593, 1999, 2387, 2426
5659, 1154, 1132, 1153, 2308
5660, 1454, 1457, 2297, 2388
5661, 895, 2296, 1055, 2328
5662, 973, 2323, 2285, 2406
5663, 2295, 2299, 940, 2385
5664, 1191, 1153, 432, 1167
5665, 1169, 1192, 1151, 2399
5666, 449, 1269, 302, 2304
5667, 314, 1268, 434, 2305
5668, 704, 1421, 2297, 2350
5669, 1767, 2370, 2311, 2391
5670, 941, 2300, 2294, 2384
5671, 909, 2313, 2287, 2340
5672, 1733, 1190, 446, 1771
5673, 704, 1421, 1611, 2297
5674, 1776, 2213, 2036, 1516
5675, 974, 2324, 2286, 2405
5676, 1990, 2186, 1362, 2404
5677, 234, 902, 800, 2306
5678, 689, 1860, 2136, 1180
5679, 1161, 2418, 2255, 2430
5680, 1155, 1951, 2089, 2432
5681, 1658, 2193, 2039, 1787
5682, 2288, 2309, 908, 2338
5683, 228, 789, 903, 2303
5684, 1884, 2332, 2170, 2365
5685, 928, 2302, 1005, 2353
5686, 1284, 1934, 1224, 2409
5687, 1558, 1192, 724, 2399
5688, 2289, 2298, 722, 2321
5689, 1347, 1741, 1422, 2441
5690, 2290, 2316, 731, 2331
5691, 2299, 2343, 1032, 2385
5692, 973, 2285, 2340, 2406
5693, 674, 1238, 1562, 1805
5694, 1711, 1933, 1998, 2413
5695, 1155, 2089, 1949, 1163
5696, 1563, 684, 1804, 1236
5697, 933, 2297, 2293, 2363
5698, 1777, 2191, 2273, 1707
5699, 1624, 1287, 1613, 2082
5700, 1158, 1708, 1593, 2335
5701, 1234, 2332, 2367, 2407
5702, 2132, 2248, 1300, 2337
5703, 1670, 1705, 1399, 1820
5704, 704, 1611, 706, 2297
5705, 1670, 1161, 1203, 2255
5706, 2028, 2074, 2422, 2435
5707, 1006, 2321, 926, 2357
5708, 1704, 1816, 1669, 1398
5709, 2251, 1285, 1936, 2365
5710, 2301, 2328, 894, 2341
5711, 743, 2388, 2297, 2410
5712, 1593, 2335, 1999, 2426
5713, 1710, 1448, 705, 2317
5714, 1898, 1896, 2367, 2436
5715, 1658, 2038, 2193, 1375
5716, 923, 2366, 2318, 2383
5717, 1391, 2407, 1646, 2436
5718, 1570, 2329, 2311, 2370
5719, 1070, 782, 976, 2334
5720, 2273, 1894, 2188, 1777
5721, 2298, 2330, 1614, 2354
5722, 935, 2301, 2288, 2380
5723, 2286, 2338, 974, 2405
5724, 1286, 2181, 1308, 2421
5725, 1856, 2170, 1884, 2332
5726, 1928, 2136, 1860, 1180
5727, 1422, 1544, 2301, 2442
5728, 2297, 2388, 2287, 2410
5729, 1606, 1578, 1381, 2245
5730, 313, 728, 819, 2305
5731, 2308, 2323, 2285, 2444
5732, 1892, 1691, 1891, 1958
5733, 1005, 2302, 729, 2353
5734, 974, 2286, 2324, 2390
5735, 2314, 2326, 1484, 2415
5736, 2039, 2038, 2193, 1658
5737, 1030, 2296, 935, 2380
5738, 1898, 2367, 2332, 2407
5739, 1031, 2342, 2300, 2384
5740, 223, 716, 2301, 2442
5741, 1617, 1168, 1188, 2370
5742, 896, 955, 988, 2306
5743, 1856, 2319, 1854, 2332
5744, 2254, 2422, 1163, 2432
5745, 1647, 2326, 2312, 2415
5746, 2287, 2363, 933, 2410
5747, 2311, 2313, 190, 2402
5748, 935, 997, 2380, 2382
5749, 872, 1055, 897, 2328
5750, 169, 2321, 2298, 2342
5751, 2288, 2338, 908, 2380
5752, 1556, 1334, 1179, 2420
5753, 1400, 2291, 1757, 2433
5754, 1402, 1758, 2292, 2434
5755, 1884, 2332, 2365, 2387
5756, 725, 301, 827, 2304
5757, 1903, 2022, 1796, 2419
5758, 1705, 1578, 2075, 2418
5759, 689, 2136, 1375, 1180
5760, 1483, 1747, 2300, 2433
5761, 1918, 703, 1541, 2068
5762, 694, 2069, 1917, 1540
5763, 1301, 1819, 1820, 1818
5764, 1815, 1816, 1814, 1303
5765, 804, 31, 2346, 2368
5766, 717, 2318, 1709, 2334
5767, 1487, 2299, 1748, 2434
5768, 918, 234, 2293, 2306
5769, 1474, 2337, 1903, 2419
5770, 996, 2303, 795, 2372
5771, 1349, 1936, 1232, 2387
5772, 913, 942, 720, 2321
5773, 2289, 2321, 722, 2357
5774, 2286, 2307, 446, 2424
5775, 431, 1176, 1175, 1168
5776, 1170, 1178, 1177, 446
5777, 729, 943, 912, 2302
5778, 2289, 2354, 2300, 2433
5779, 623, 2316, 2302, 2349
5780, 2287, 1457, 2297, 2359
5781, 909, 2340, 2287, 2363
5782, 1847, 2320, 1849, 2333
5783, 2137, 1334, 1927, 2420
5784, 1448, 219, 734, 2350
5785, 974, 2338, 2286, 2390
5786, 2127, 1705, 1820, 2075
5787, 2126, 2074, 1816, 1704
5788, 1154, 1168, 1617, 2308
5789, 1585, 1132, 1213, 2308
5790, 1006, 720, 2321, 2357
5791, 670, 2137, 1861, 2420
5792, 1650, 1369, 1554, 2361
5793, 1651, 1555, 1370, 2360
5794, 2292, 2295, 990, 2385
5795, 908, 884, 877, 2338
5796, 1369, 1269, 1356, 2304
5797, 1268, 1370, 1354, 2305
5798, 1301, 1238, 1239, 1819
5799, 1066, 2321, 979, 2400
5800, 1153, 727, 432, 2308
5801, 1236, 1237, 1815, 1303
5802, 1308, 1691, 1892, 1958
5803, 1158, 1157, 1623, 1954
5804, 1711, 1595, 2413, 2414
5805, 602, 2298, 169, 2321
5806, 977, 614, 891, 2312
5807, 728, 434, 314, 727
5808, 989, 2294, 2291, 2384
5809, 1391, 1797, 1646, 2407
5810, 1287, 2182, 2250, 2409
5811, 1943, 1671, 1520, 1912
5812, 1610, 1405, 1614, 2330
5813, 877, 908, 2338, 2380
5814, 1898, 2367, 2407, 2436
5815, 935, 2380, 2288, 2382
5816, 1365, 1305, 1687, 1890
5817, 740, 2297, 1742, 2350
5818, 2291, 2294, 1757, 2433
5819, 1758, 2295, 2292, 2434
5820, 2269, 2039, 2193, 1787
5821, 2318, 2366, 221, 2383
5822, 2293, 2297, 2287, 2363
5823, 689, 2136, 2038, 1375
5824, 1167, 1154, 432, 1168
5825, 1170, 1169, 1152, 447
5826, 781, 2347, 33, 2366
5827, 2248, 1474, 1865, 2011
5828, 1691, 1892, 1891, 2420
5829, 1234, 2367, 1646, 2407
5830, 218, 704, 706, 2297
5831, 1563, 1804, 684, 1360
5832, 1767, 2308, 1213, 2370
5833, 449, 724, 725, 302
5834, 1650, 2304, 1369, 2361
5835, 1651, 1370, 2305, 2360
5836, 896, 988, 1061, 2293
5837, 2193, 2136, 1526, 1375
5838, 1710, 2317, 705, 2344
5839, 1608, 2038, 1658, 1375
5840, 890, 613, 977, 2312
5841, 314, 434, 728, 2305
5842, 959, 979, 2324, 2400
5843, 1156, 1951, 1155, 2432
5844, 1691, 1619, 1891, 1958
5845, 895, 1055, 872, 2328
5846, 1934, 1351, 1224, 2413
5847, 1391, 1991, 2407, 2436
5848, 1007, 926, 1006, 2321
5849, 1230, 2365, 2332, 2387
5850, 954, 936, 897, 2303
5851, 1904, 1785, 2024, 2435
5852, 895, 935, 2296, 2301
5853, 1396, 2318, 1709, 2441
5854, 1362, 2186, 2397, 2404
5855, 1856, 1855, 1854, 2319
5856, 1588, 1708, 1349, 2387
5857, 1203, 1161, 1150, 2418
5858, 1671, 1249, 1520, 1912
5859, 1646, 2407, 2367, 2436
5860, 1204, 1148, 1163, 2422
5861, 1904, 2403, 1785, 2435
5862, 217, 1024, 634, 2371
5863, 1037, 2293, 933, 2443
5864, 1365, 1869, 1890, 2417
5865, 1203, 2255, 1161, 2418
5866, 2296, 2303, 897, 2372
5867, 224, 647, 1025, 2372
5868, 228, 903, 954, 2303
5869, 1204, 1163, 2254, 2422
5870, 1911, 1672, 1247, 1518
5871, 1669, 2126, 1816, 1704
5872, 1820, 1670, 1705, 2127
5873, 1615, 1404, 1609, 2316
5874, 2320, 2333, 1221, 2369
5875, 1448, 219, 704, 705
5876, 449, 302, 725, 2304
5877, 1551, 1406, 1770, 2411
5878, 1173, 622, 2299, 2349
5879, 1028, 852, 2314, 2415
5880, 1704, 1669, 2126, 1204
5881, 1203, 1705, 1670, 2127
5882, 1404, 1609, 2316, 2331
5883, 1174, 2300, 621, 2354
5884, 1581, 2422, 1704, 2435
5885, 1920, 2036, 2035, 1535
5886, 674, 1562, 1359, 1805
5887, 1710, 1395, 1448, 2317
5888, 894, 2341, 2328, 2352
5889, 1067, 2302, 624, 2402
5890, 1691, 1892, 2420, 2421
5891, 1243, 2188, 1894, 1777
5892, 1462, 2327, 2288, 2348
5893, 1891, 1619, 1691, 2420
5894, 1215, 115, 429, 1181
5895, 1459, 2329, 40, 2359
5896, 1667, 1860, 1467, 1676
5897, 870, 896, 1061, 2358
5898, 1058, 185, 898, 2302
5899, 1708, 1158, 2261, 1999
5900, 2255, 2091, 1161, 2430
5901, 1023, 2315, 853, 2326
5902, 1869, 2130, 1890, 2417
5903, 2186, 1852, 2276, 2397
5904, 1158, 2261, 1999, 2335
5905, 1956, 2407, 1991, 2436
5906, 1032, 940, 2299, 2385
5907, 1610, 1614, 2298, 2330
5908, 2127, 1670, 1203, 2255
5909, 941, 2300, 966, 2314
5910, 1917, 2144, 694, 1540
5911, 1540, 2144, 694, 1166
5912, 804, 31, 2368, 2398
5913, 703, 1541, 1165, 2145
5914, 940, 970, 2299, 2315
5915, 838, 852, 2326, 2415
5916, 2145, 703, 1541, 1918
5917, 1002, 897, 2296, 2303
5918, 2164, 1811, 1825, 2322
5919, 838, 2314, 852, 2415
5920, 1059, 973, 2340, 2406
5921, 1308, 1892, 1691, 2421
5922, 1615, 1404, 2316, 2349
5923, 966, 2300, 890, 2356
5924, 2082, 1287, 1613, 1960
5925, 1133, 2333, 2320, 2345
5926, 1005, 1008, 943, 2302
5927, 1767, 2308, 2370, 2391
5928, 1610, 1614, 1296, 2298
5929, 1854, 2332, 2319, 2336
5930, 810, 217, 1024, 634
5931, 35, 1466, 1465, 2327
5932, 1455, 2329, 1459, 2359
5933, 984, 907, 2313, 2340
5934, 1467, 1180, 1860, 1667
5935, 1769, 2311, 2316, 2391
5936, 1918, 1541, 1294, 2235
5937, 1232, 1936, 1285, 2365
5938, 1540, 2234, 1917, 1292
5939, 1404, 2331, 2316, 2349
5940, 2181, 1959, 1308, 2421
5941, 896, 988, 2293, 2306
5942, 1611, 2297, 1457, 2359
5943, 224, 1025, 647, 792
5944, 1474, 1903, 1796, 2419
5945, 1898, 2332, 1857, 2407
5946, 970, 891, 2299, 2355
5947, 1647, 2312, 1482, 2415
5948, 1018, 933, 2363, 2410
5949, 2022, 1381, 1796, 2419
5950, 1769, 2316, 1549, 2391
5951, 1213, 2308, 1767, 2391
5952, 35, 2327, 1465, 2348
5953, 2251, 1285, 1286, 2084
5954, 1603, 774, 1988, 2345
5955, 899, 169, 1057, 2321
5956, 804, 2398, 2368, 2437
5957, 1691, 1308, 1619, 1958
5958, 919, 2296, 228, 2303
5959, 2091, 1952, 1162, 1954
5960, 1224, 1225, 1284, 2409
5961, 1864, 1903, 1865, 2337
5962, 2065, 688, 1637, 2397
5963, 1864, 1903, 2337, 2419
5964, 1390, 1235, 2401, 2436
5965, 933, 2297, 2287, 2410
5966, 1200, 1906, 1813, 1236
5967, 620, 868, 969, 2343
5968, 1031, 2300, 941, 2384
5969, 897, 1055, 1002, 2296
5970, 1859, 2185, 2275, 2401
5971, 1234, 1451, 2332, 2407
5972, 722, 2298, 2289, 2330
5973, 2029, 1980, 2075, 2418
5974, 891, 617, 2299, 2355
5975, 1617, 2308, 1168, 2370
5976, 974, 905, 2324, 2405
5977, 1849, 2333, 2320, 2369
5978, 2028, 2074, 1979, 2422
5979, 890, 2300, 618, 2356
5980, 2089, 2254, 1163, 2432
5981, 1686, 2359, 1731, 2379
5982, 1396, 2318, 589, 2334
5983, 959, 2400, 2324, 2405
5984, 2093, 1830, 2244, 2435
5985, 1462, 1465, 2327, 2348
5986, 1884, 1856, 2332, 2387
5987, 1001, 2317, 924, 2381
5988, 619, 965, 867, 2342
5989, 1349, 1285, 1232, 1936
5990, 35, 1733, 1771, 2327
5991, 2137, 1927, 1861, 2420
5992, 706, 2293, 218, 2297
5993, 589, 594, 2334, 2425
5994, 1497, 1538, 1675, 2027
5995, 1539, 1674, 2026, 1499
5996, 690, 1860, 689, 1667
5997, 1039, 926, 2289, 2384
5998, 1708, 1158, 1799, 2261
5999, 1390, 2401, 2275, 2436
6000, 1678, 2304, 842, 2361
6001, 1680, 843, 2305, 2360
6002, 1542, 1483, 1747, 2300
6003, 1487, 1543, 1748, 2299
6004, 940, 2295, 1049, 2315
6005, 1496, 1355, 1683, 448
6006, 2298, 2321, 2289, 2342
6007, 1684, 433, 1353, 1498
6008, 223, 2301, 716, 2341
6009, 2012, 1863, 2249, 2396
6010, 928, 1038, 2290, 2385
6011, 1375, 2136, 1526, 1180
6012, 1050, 2294, 941, 2314
6013, 1647, 1484, 2326, 2415
6014, 631, 630, 810, 2412
6015, 739, 2317, 1395, 2344
6016, 704, 2297, 218, 2350
6017, 1785, 1378, 2024, 2435
6018, 643, 792, 642, 2416
6019, 974, 1056, 2338, 2390
6020, 1153, 432, 1154, 2308
6021, 1298, 2137, 670, 1179
6022, 717, 1709, 2318, 2441
6023, 731, 2302, 2290, 2353
6024, 1473, 1904, 2012, 2403
6025, 2145, 1541, 1294, 1918
6026, 1709, 2318, 1396, 2334
6027, 1935, 1936, 1349, 2387
6028, 1234, 1646, 1451, 2407
6029, 1917, 2144, 1540, 1292
6030, 1474, 1903, 1865, 2011
6031, 739, 2344, 744, 2427
6032, 33, 781, 2366, 2389
6033, 2253, 1874, 605, 1793
6034, 912, 2302, 978, 2323
6035, 1482, 2312, 2356, 2415
6036, 1860, 1889, 1467, 1676
6037, 2324, 2364, 2286, 2400
6038, 690, 1667, 1159, 2397
6039, 431, 2308, 2285, 2370
6040, 589, 594, 1396, 2334
6041, 1847, 1848, 1849, 2320
6042, 1365, 1676, 1889, 1869
6043, 971, 970, 2315, 2355
6044, 1050, 941, 966, 2314
6045, 940, 1049, 970, 2315
6046, 2293, 2297, 933, 2443
6047, 1406, 2298, 1761, 2354
6048, 1544, 1347, 1422, 2301
6049, 1301, 1239, 1302, 1819
6050, 39, 114, 1471, 2379
6051, 31, 2398, 2346, 2423
6052, 1244, 1336, 2256, 1335
6053, 1984, 1300, 2132, 2248
6054, 1767, 1213, 1706, 2370
6055, 935, 2296, 2301, 2380
6056, 169, 2342, 2298, 2354
6057, 2288, 2348, 227, 2380
6058, 621, 1174, 1480, 2300
6059, 1638, 672, 2066, 2401
6060, 1249, 1248, 1629, 2445
6061, 2287, 2329, 1455, 2359
6062, 1630, 1246, 1247, 2446
6063, 1935, 1708, 1349, 2059
6064, 876, 906, 909, 2363
6065, 234, 918, 800, 902
6066, 1480, 615, 2300, 2356
6067, 1713, 1338, 1885, 1682
6068, 1230, 2332, 2319, 2387
6069, 1610, 1296, 721, 2298
6070, 1654, 2396, 2325, 2403
6071, 935, 2288, 2301, 2382
6072, 1610, 2298, 721, 2330
6073, 744, 739, 1395, 2344
6074, 2176, 2029, 2245, 2419
6075, 934, 2301, 894, 2341
6076, 234, 955, 902, 2306
6077, 1710, 1395, 2317, 2344
6078, 1245, 2257, 1339, 1337
6079, 1038, 928, 2290, 2343
6080, 1039, 2289, 926, 2342
6081, 1294, 1165, 1541, 2145
6082, 1166, 1540, 2144, 1292
6083, 1038, 1008, 928, 2343
6084, 1287, 1284, 2250, 2082
6085, 1229, 2319, 2332, 2336
6086, 1039, 926, 1007, 2342
6087, 2094, 1359, 1381, 2245
6088, 2376, 1572, 2409, 2417
6089, 1937, 1281, 1259, 1196
6090, 610, 614, 2312, 2355
6091, 613, 609, 2312, 2356
6092, 1173, 622, 1485, 2299
6093, 112, 408, 1182, 1217
6094, 1936, 1884, 2170, 2365
6095, 1286, 1308, 1307, 2421
6096, 937, 955, 896, 2306
6097, 1485, 2299, 616, 2355
6098, 449, 724, 1355, 448
6099, 446, 2307, 2286, 2390
6100, 1259, 2165, 1937, 1196
6101, 1936, 2365, 1232, 2387
6102, 1509, 744, 1395, 2344
6103, 1158, 1623, 1799, 2261
6104, 1039, 927, 926, 2384
6105, 834, 2294, 874, 2314
6106, 1303, 1237, 1815, 1304
6107, 2130, 2182, 1305, 2409
6108, 919, 228, 789, 903
6109, 667, 947, 2293, 2363
6110, 875, 2295, 835, 2315
6111, 1258, 1938, 2166, 1194
6112, 1386, 1306, 1365, 1957
6113, 2376, 2404, 1572, 2417
6114, 1672, 1911, 1944, 1518
6115, 2255, 1203, 2127, 2418
6116, 623, 2302, 185, 2349
6117, 974, 2324, 960, 2390
6118, 1005, 943, 729, 2302
6119, 1456, 2329, 1570, 2370
6120, 2254, 2126, 1204, 2422
6121, 2156, 1891, 1927, 1334
6122, 958, 997, 908, 2380
6123, 1675, 1755, 1497, 2281
6124, 2280, 1674, 1756, 1499
6125, 2214, 2036, 2213, 1516
6126, 1990, 2276, 1388, 2186
6127, 1683, 1558, 1192, 448
6128, 1684, 1559, 433, 1191
6129, 1156, 2262, 1951, 2432
6130, 2094, 1381, 2022, 2245
6131, 2251, 1286, 2181, 2084
6132, 1305, 2182, 1287, 2409
6133, 1302, 1780, 1301, 1819
6134, 973, 962, 2323, 2406
6135, 620, 969, 2299, 2343
6136, 1819, 1821, 1780, 1820
6137, 827, 828, 449, 2304
6138, 819, 434, 820, 2305
6139, 2286, 2364, 2324, 2390
6140, 1938, 1258, 1280, 1194
6141, 928, 929, 1038, 2385
6142, 2311, 2329, 2285, 2370
6143, 1185, 1186, 1162, 1953
6144, 933, 1037, 1018, 2363
6145, 1136, 2319, 1229, 2336
6146, 1934, 1933, 1351, 2413
6147, 608, 2299, 622, 2349
6148, 109, 36, 1472, 2375
6149, 619, 2300, 965, 2342
6150, 1965, 2282, 2005, 2365
6151, 1526, 1658, 2193, 1375
6152, 913, 979, 2321, 2324
6153, 1353, 434, 433, 727
6154, 1396, 594, 1508, 2334
6155, 1379, 1904, 1473, 1785
6156, 589, 2334, 2318, 2425
6157, 169, 2298, 170, 2354
6158, 1227, 1362, 1388, 2397
6159, 2136, 1928, 2193, 1526
6160, 1050, 874, 1014, 2294
6161, 813, 217, 2306, 2371
6162, 1589, 1711, 1595, 2413
6163, 1334, 2156, 1891, 1619
6164, 728, 433, 434, 727
6165, 1667, 1676, 1159, 2397
6166, 1816, 1815, 1817, 1779
6167, 730, 2316, 1609, 2331
6168, 1520, 1943, 1912, 1969
6169, 1377, 2093, 1378, 1360
6170, 1013, 875, 1049, 2295
6171, 169, 602, 170, 2298
6172, 1390, 1364, 1235, 2436
6173, 449, 725, 724, 448
6174, 1382, 1796, 1474, 1903
6175, 802, 413, 800, 2306
6176, 1936, 1349, 1285, 2032
6177, 984, 973, 907, 2340
6178, 1249, 1629, 1520, 1912
6179, 1180, 1860, 1928, 1467
6180, 989, 931, 2294, 2384
6181, 954, 919, 228, 2303
6182, 930, 990, 2295, 2385
6183, 2305, 2360, 843, 2378
6184, 842, 2361, 2304, 2377
6185, 1249, 1671, 1910, 1912
6186, 1156, 2414, 2262, 2432
6187, 1894, 2115, 2272, 1243
6188, 230, 2338, 2288, 2380
6189, 685, 1813, 684, 1236
6190, 1518, 1247, 1911, 1630
6191, 897, 2303, 936, 2372
6192, 2317, 2344, 739, 2427
6193, 890, 966, 965, 2300
6194, 1022, 2347, 781, 2366
6195, 1059, 1009, 973, 2406
6196, 2296, 2301, 223, 2328
6197, 1221, 2320, 1133, 2333
6198, 2235, 1918, 1541, 2068
6199, 2069, 2234, 1917, 1540
6200, 891, 971, 2312, 2355
6201, 1708, 1384, 1349, 2059
6202, 1890, 1365, 1306, 1957
6203, 230, 35, 2288, 2338
6204, 227, 2288, 35, 2348
6205, 1669, 1949, 2126, 1163
6206, 1955, 1990, 1389, 2404
6207, 674, 676, 1238, 1812
6208, 663, 2288, 227, 2380
6209, 231, 2359, 2287, 2363
6210, 2181, 1286, 1308, 1959
6211, 1815, 1303, 1304, 1779
6212, 1284, 1351, 1224, 1934
6213, 827, 828, 2304, 2428
6214, 819, 2305, 820, 2429
6215, 1465, 227, 35, 2348
6216, 219, 2317, 2350, 2381
6217, 1733, 2327, 35, 2424
6218, 1260, 1752, 2329, 2388
6219, 35, 2327, 2288, 2338
6220, 795, 2303, 793, 2372
6221, 2035, 1535, 1298, 1766
6222, 1542, 2294, 1240, 2314
6223, 1543, 1241, 2295, 2315
6224, 40, 2329, 2287, 2359
6225, 2191, 2273, 2188, 1777
6226, 2193, 1658, 1526, 1787
6227, 891, 614, 617, 2355
6228, 1185, 1161, 1670, 1952
6229, 918, 955, 234, 2306
6230, 1163, 1669, 1949, 1183
6231, 1630, 1247, 1911, 2446
6232, 1711, 1998, 2262, 2414
6233, 890, 618, 613, 2356
6234, 1222, 2320, 1221, 2369
6235, 1249, 1629, 1912, 2445
6236, 1379, 2024, 1904, 1785
6237, 969, 970, 891, 2299
6238, 39, 2306, 114, 2379
6239, 2261, 2335, 1158, 2430
6240, 798, 789, 403, 2303
6241, 971, 2315, 972, 2326
6242, 1910, 1249, 1912, 2445
6243, 2114, 2214, 1893, 1794
6244, 1488, 2312, 2326, 2355
6245, 2005, 2282, 2181, 2365
6246, 1754, 1886, 1941, 1368
6247, 2164, 2322, 1825, 2335
6248, 722, 2321, 2298, 2400
6249, 1672, 1909, 1911, 1247
6250, 1949, 1164, 1155, 1163
6251, 1377, 2093, 2024, 1378
6252, 1804, 2093, 684, 1360
6253, 842, 2291, 2361, 2377
6254, 2292, 843, 2360, 2378
6255, 35, 2288, 2327, 2348
6256, 1200, 1237, 1906, 1236
6257, 1813, 2160, 1906, 1200
6258, 1796, 1382, 2022, 1903
6259, 1909, 1911, 1247, 2446
6260, 966, 2314, 2300, 2356
6261, 2093, 2024, 1378, 2435
6262, 1458, 40, 231, 2359
6263, 2289, 2330, 2298, 2354
6264, 827, 2304, 301, 2428
6265, 313, 2305, 819, 2429
6266, 1152, 1170, 447, 2307
6267, 906, 2340, 909, 2363
6268, 890, 2312, 967, 2356
6269, 2280, 1674, 1783, 1310
6270, 1175, 1428, 2026, 1539
6271, 1164, 1622, 1218, 1951
6272, 2299, 2315, 970, 2355
6273, 2136, 1928, 1526, 1180
6274, 1675, 1784, 1309, 2281
6275, 1177, 1427, 1538, 2027
6276, 1472, 109, 112, 1217
6277, 1467, 1889, 2155, 1386
6278, 1780, 1302, 1821, 1819
6279, 1955, 2404, 1389, 2438
6280, 1200, 2160, 1906, 1701
6281, 231, 2293, 666, 2379
6282, 2346, 2398, 806, 2423
6283, 1421, 1346, 1611, 2297
6284, 2029, 2418, 1578, 2419
6285, 1676, 1869, 1365, 2417
6286, 1585, 1132, 2308, 2391
6287, 2287, 2340, 232, 2363
6288, 1306, 1287, 1305, 2182
6289, 623, 186, 2316, 2349
6290, 1516, 1893, 2214, 1794
6291, 2314, 1484, 2356, 2415
6292, 1526, 2269, 2193, 1787
6293, 400, 2334, 594, 2425
6294, 1069, 2368, 2346, 2394
6295, 1447, 1396, 1709, 2441
6296, 937, 2306, 896, 2371
6297, 1162, 1623, 1954, 1953
6298, 1669, 1838, 1949, 1183
6299, 1952, 1670, 1185, 1836
6300, 1952, 1185, 1162, 1953
6301, 1380, 1359, 1381, 2094
6302, 1990, 1388, 1362, 2186
6303, 734, 739, 751, 2317
6304, 1934, 2171, 2369, 2409
6305, 223, 2328, 2301, 2341
6306, 2126, 1816, 1838, 1669
6307, 1820, 1836, 1670, 2127
6308, 1648, 2315, 1489, 2326
6309, 1378, 1360, 2093, 2435
6310, 223, 719, 716, 2442
6311, 35, 1771, 1466, 2327
6312, 1869, 1889, 1365, 1890
6313, 2261, 1158, 1623, 1954
6314, 670, 2035, 2137, 1298
6315, 2300, 2354, 1483, 2433
6316, 1648, 839, 2315, 2326
6317, 898, 1067, 978, 2302
6318, 1898, 2407, 1956, 2436
6319, 446, 1616, 1170, 1190
6320, 2037, 1921, 627, 1608
6321, 2321, 2324, 979, 2400
6322, 230, 877, 2338, 2380
6323, 1407, 1549, 1769, 2316
6324, 1554, 1369, 1678, 2304
6325, 1370, 1555, 1680, 2305
6326, 966, 2314, 2356, 2415
6327, 2094, 674, 1359, 1805
6328, 972, 2315, 1023, 2326
6329, 1769, 2311, 625, 2316
6330, 415, 744, 2344, 2427
6331, 1146, 2335, 2322, 2374
6332, 813, 2306, 812, 2371
6333, 804, 2344, 2398, 2437
6334, 2117, 2269, 2193, 1526
6335, 1068, 2347, 2366, 2395
6336, 2325, 2396, 1863, 2403
6337, 1608, 2037, 2038, 1375
6338, 1458, 1455, 1459, 2359
6339, 1707, 1777, 2191, 1444
6340, 1381, 1380, 2094, 2022
6341, 1308, 1772, 1958, 1959
6342, 1647, 1482, 1484, 2415
6343, 893, 1061, 1037, 2293
6344, 662, 2296, 946, 2380
6345, 954, 996, 936, 2303
6346, 978, 912, 943, 2302
6347, 1542, 1481, 2300, 2314
6348, 1543, 2299, 1486, 2315
6349, 1706, 1456, 1570, 2370
6350, 1454, 1457, 1346, 2297
6351, 1497, 1295, 1496, 2031
6352, 2030, 1499, 1293, 1498
6353, 942, 1007, 1006, 2321
6354, 874, 1028, 852, 2314
6355, 1890, 1306, 1305, 2182
6356, 1663, 1757, 1400, 2291
6357, 1758, 1664, 1402, 2292
6358, 1615, 1609, 1297, 2316
6359, 2159, 1905, 1199, 1812
6360, 1482, 2356, 1484, 2415
6361, 1023, 875, 853, 2315
6362, 231, 666, 39, 2379
6363, 109, 2303, 36, 2375
6364, 1406, 1614, 1761, 2298
6365, 890, 965, 618, 2300
6366, 827, 301, 999, 2428
6367, 998, 313, 819, 2429
6368, 1715, 1405, 2330, 2354
6369, 2308, 2311, 2285, 2370
6370, 901, 1051, 998, 313
6371, 301, 900, 1052, 999
6372, 1927, 1334, 1891, 2420
6373, 1473, 2012, 1904, 1379
6374, 1190, 1601, 446, 1771
6375, 1903, 1474, 1382, 2011
6376, 1905, 1199, 1700, 2159
6377, 1304, 1817, 1815, 1779
6378, 1623, 1162, 1219, 1953
6379, 1935, 1999, 1708, 2059
6380, 1157, 1162, 1623, 1954
6381, 2132, 779, 1300, 1984
6382, 926, 2357, 2289, 2384
6383, 383, 1802, 2141, 2319
6384, 1652, 1211, 1484, 2326
6385, 1389, 1990, 1362, 2404
6386, 40, 232, 2287, 2340
6387, 1836, 1952, 1670, 2127
6388, 2126, 1838, 1949, 1669
6389, 1297, 730, 1288, 2391
6390, 2167, 1302, 1239, 1819
6391, 432, 1168, 1154, 2308
6392, 969, 891, 617, 2299
6393, 227, 2348, 1660, 2375
6394, 1344, 680, 1947, 1360
6395, 2082, 1613, 1624, 2081
6396, 1152, 447, 1169, 2399
6397, 314, 728, 313, 2305
6398, 1338, 1885, 1939, 1713
6399, 663, 35, 227, 2288
6400, 912, 978, 961, 2323
6401, 2290, 2353, 928, 2385
6402, 1058, 898, 1008, 2302
6403, 913, 959, 979, 2324
6404, 2269, 2191, 2039, 1787
6405, 230, 2288, 663, 2380
6406, 1386, 1889, 2155, 1957
6407, 1352, 1284, 1624, 2082
6408, 1400, 1757, 1401, 2433
6409, 2302, 2316, 2290, 2349
6410, 1402, 1403, 1758, 2434
6411, 218, 2297, 2293, 2443
6412, 611, 977, 613, 2312
6413, 731, 2290, 2331, 2353
6414, 2299, 1486, 2315, 2355
6415, 1481, 2300, 2314, 2356
6416, 431, 1798, 1188, 2370
6417, 2112, 2345, 1994, 2438
6418, 1183, 1950, 1164, 1184
6419, 1936, 1884, 2365, 2387
6420, 1920, 2034, 628, 1535
6421, 1714, 2290, 2331, 2349
6422, 2289, 722, 2330, 2357
6423, 1017, 2312, 2326, 2415
6424, 1241, 851, 2295, 2315
6425, 2397, 2404, 2186, 2417
6426, 1240, 2294, 850, 2314
6427, 1509, 415, 744, 2344
6428, 1229, 2319, 1230, 2332
6429, 977, 611, 614, 2312
6430, 1351, 1589, 1224, 2413
6431, 974, 1010, 1056, 2390
6432, 40, 2287, 2329, 2340
6433, 2140, 1803, 376, 2320
6434, 1519, 1336, 1520, 1969
6435, 1285, 1350, 1628, 2084
6436, 1733, 446, 35, 1771
6437, 629, 1893, 2213, 1516
6438, 1237, 2168, 1815, 1304
6439, 429, 217, 711, 2306
6440, 1300, 102, 389, 2337
6441, 1359, 1345, 678, 1948
6442, 626, 1894, 2272, 1243
6443, 429, 115, 813, 2306
6444, 170, 1406, 1761, 2354
6445, 1968, 1339, 1518, 1517
6446, 2275, 2185, 1992, 2436
6447, 2074, 2028, 1830, 2435
6448, 1997, 1244, 2256, 1335
6449, 2285, 2391, 2308, 2444
6450, 1213, 1767, 1585, 2391
6451, 1616, 446, 2307, 2424
6452, 1305, 1365, 1306, 1890
6453, 1622, 1155, 1156, 1951
6454, 112, 797, 109, 2303
6455, 1608, 1658, 2039, 1291
6456, 1521, 609, 1275, 2356
6457, 1284, 1351, 1934, 2033
6458, 1243, 1291, 2188, 1777
6459, 1136, 1230, 1229, 2319
6460, 1520, 1438, 1671, 1943
6461, 2256, 1336, 1411, 1335
6462, 804, 2346, 1020, 2368
6463, 1221, 1222, 1133, 2320
6464, 1533, 1368, 1940, 1335
6465, 1849, 2320, 1848, 2369
6466, 1188, 1798, 1656, 2370
6467, 1711, 2262, 1156, 2414
6468, 227, 36, 2296, 2375
6469, 1298, 668, 2035, 1766
6470, 971, 1017, 2312, 2326
6471, 594, 400, 1508, 2334
6472, 734, 2317, 738, 2350
6473, 608, 2343, 2299, 2349
6474, 1489, 2326, 2315, 2355
6475, 1183, 1888, 1950, 1184
6476, 726, 1047, 313, 819
6477, 1684, 433, 1559, 727
6478, 1400, 2330, 1319, 2361
6479, 1402, 1321, 2331, 2360
6480, 1996, 2257, 1245, 1337
6481, 115, 114, 801, 2306
6482, 2287, 2313, 909, 2410
6483, 2328, 2341, 223, 2352
6484, 871, 2328, 897, 2372
6485, 670, 668, 2035, 1298
6486, 1772, 1631, 1619, 1958
6487, 725, 447, 2390, 2399
6488, 725, 302, 301, 2304
6489, 1298, 1315, 2137, 1179
6490, 1434, 1473, 2012, 2396
6491, 621, 2300, 607, 2354
6492, 1309, 1262, 1755, 2281
6493, 691, 2038, 2037, 1375
6494, 1263, 2280, 1310, 1756
6495, 2059, 1799, 1384, 2107
6496, 589, 585, 594, 2425
6497, 2093, 2244, 2024, 2435
6498, 1920, 2213, 1776, 628
6499, 1968, 1944, 1911, 1518
6500, 2298, 2342, 2289, 2354
6501, 812, 2306, 994, 2371
6502, 739, 744, 735, 2427
6503, 1573, 2367, 2365, 2421
6504, 1169, 447, 1192, 2399
6505, 2109, 2110, 1452, 1993
6506, 1170, 1152, 1616, 2307
6507, 32, 2358, 2306, 2371
6508, 2164, 2322, 2335, 2374
6509, 601, 587, 2318, 2441
6510, 1285, 2251, 1936, 2084
6511, 1232, 2365, 1230, 2387
6512, 607, 2300, 619, 2342
6513, 230, 664, 877, 2380
6514, 1871, 1885, 1937, 1682
6515, 1191, 1559, 433, 727
6516, 868, 1032, 969, 2343
6517, 1535, 2035, 2034, 1766
6518, 1787, 1342, 2269, 1444
6519, 2312, 967, 2356, 2415
6520, 1315, 2137, 2035, 1298
6521, 620, 2299, 608, 2343
6522, 2285, 2323, 2308, 2406
6523, 1714, 2331, 1404, 2349
6524, 1567, 1715, 1405, 2330
6525, 1568, 1404, 1714, 2331
6526, 1561, 1384, 1799, 2107
6527, 2038, 1921, 2037, 1608
6528, 431, 1600, 1188, 1798
6529, 801, 114, 799, 2306
6530, 877, 884, 230, 2338
6531, 1631, 2156, 1619, 1958
6532, 2257, 1412, 1339, 1337
6533, 2254, 2126, 1949, 1163
6534, 1368, 1754, 1886, 1662
6535, 1239, 1905, 1819, 1812
6536, 1939, 1338, 1781, 1337
6537, 1466, 1462, 1465, 2327
6538, 1989, 1389, 1955, 1990
6539, 1328, 2035, 2036, 1535
6540, 1280, 2166, 1938, 1194
6541, 1342, 2269, 1526, 1787
6542, 895, 1030, 1055, 2296
6543, 1031, 867, 965, 2342
6544, 2181, 2365, 2282, 2421
6545, 429, 813, 217, 2306
6546, 1567, 2289, 2330, 2433
6547, 1291, 1658, 2039, 1787
6548, 1992, 1991, 1391, 2436
6549, 908, 2309, 2288, 2382
6550, 1792, 1628, 1500, 1844
6551, 1609, 730, 1297, 2316
6552, 1066, 603, 2400, 2405
6553, 1281, 1937, 2165, 1196
6554, 1990, 1955, 2186, 2404
6555, 797, 788, 109, 2303
6556, 1943, 1910, 1671, 1912
6557, 1186, 1185, 1887, 1953
6558, 1350, 1285, 1349, 2032
6559, 1951, 1218, 1164, 1950
6560, 1811, 2322, 2164, 2374
6561, 984, 2313, 909, 2340
6562, 313, 1047, 998, 819
6563, 999, 301, 827, 1048
6564, 1892, 1308, 1959, 2421
6565, 1001, 2350, 2317, 2381
6566, 1487, 1568, 1714, 2434
6567, 615, 621, 1480, 2300
6568, 1611, 1457, 1731, 2359
6569, 2224, 1927, 2076, 1315
6570, 1455, 2287, 1457, 2388
6571, 1400, 1320, 1319, 2330
6572, 2155, 1928, 1889, 1467
6573, 1322, 1402, 1321, 2331
6574, 1898, 1956, 1896, 2436
6575, 1167, 432, 1175, 1168
6576, 1169, 1170, 1177, 447
6577, 723, 827, 301, 1048
6578, 186, 623, 185, 2349
6579, 724, 1192, 1558, 448
6580, 986, 908, 2309, 2338
6581, 1323, 1507, 1718, 2278
6582, 1242, 2114, 1893, 1794
6583, 734, 1395, 739, 2317
6584, 1757, 2291, 844, 2294
6585, 1758, 845, 2292, 2295
6586, 1682, 1937, 1871, 1281
6587, 1855, 1856, 1884, 2387
6588, 1934, 2250, 1284, 2082
6589, 966, 2356, 967, 2415
6590, 1921, 2039, 2188, 1291
6591, 219, 2350, 2362, 2381
6592, 1284, 1352, 2033, 2082
6593, 1674, 1428, 2026, 1783
6594, 902, 1063, 802, 2306
6595, 603, 2321, 1066, 2400
6596, 400, 594, 585, 2425
6597, 227, 2296, 2348, 2375
6598, 1310, 1263, 1246, 2446
6599, 1395, 734, 1448, 2317
6600, 1248, 1262, 1309, 2445
6601, 1527, 1130, 1730, 2423
6602, 1406, 604, 1770, 2411
6603, 1711, 1998, 1933, 2058
6604, 1910, 1912, 1840, 2445
6605, 1427, 1784, 1675, 2027
6606, 1485, 622, 616, 2299
6607, 1934, 2250, 2171, 2409
6608, 1989, 1955, 1389, 2438
6609, 1488, 2312, 1647, 2326
6610, 301, 2357, 880, 2377
6611, 2117, 2193, 1928, 1526
6612, 415, 735, 744, 2427
6613, 942, 1006, 720, 2321
6614, 720, 722, 2321, 2357
6615, 2285, 2311, 2308, 2391
6616, 1193, 1244, 2166, 1194
6617, 1560, 1732, 1218, 2108
6618, 40, 2287, 231, 2359
6619, 1061, 2358, 2293, 2443
6620, 2316, 2331, 2290, 2349
6621, 1285, 1350, 2084, 2032
6622, 728, 432, 727, 2308
6623, 1328, 2214, 2036, 1431
6624, 1170, 1616, 446, 2307
6625, 1799, 1708, 2261, 2059
6626, 40, 2340, 2329, 2370
6627, 2311, 2370, 2308, 2391
6628, 903, 1062, 954, 2303
6629, 1676, 2397, 1869, 2417
6630, 883, 729, 882, 2353
6631, 931, 1014, 989, 2294
6632, 903, 798, 1062, 2303
6633, 2291, 2357, 915, 2384
6634, 1909, 1841, 1911, 2446
6635, 990, 1013, 930, 2295
6636, 1994, 2112, 2232, 2345
6637, 994, 955, 937, 2306
6638, 914, 880, 2357, 2377
6639, 629, 2213, 1776, 1516
6640, 1816, 1817, 1838, 1513
6641, 2255, 1952, 1161, 2091
6642, 2254, 1949, 2089, 1163
6643, 1566, 2037, 627, 1608
6644, 1733, 35, 446, 2424
6645, 2036, 2076, 2035, 1328
6646, 1715, 1614, 1405, 2354
6647, 1066, 879, 603, 2405
6648, 1821, 1836, 1512, 1820
6649, 2296, 2301, 2288, 2348
6650, 412, 795, 798, 2303
6651, 1516, 1242, 1893, 1794
6652, 819, 313, 726, 728
6653, 2035, 2076, 2137, 1315
6654, 2108, 1218, 1622, 1951
6655, 629, 1765, 1893, 1516
6656, 1191, 432, 1539, 1167
6657, 1192, 1169, 1538, 447
6658, 1863, 2325, 2133, 2396
6659, 2301, 1544, 2440, 2442
6660, 882, 2353, 313, 2378
6661, 1901, 2422, 2403, 2435
6662, 2167, 1821, 1302, 1819
6663, 1280, 1938, 1870, 1662
6664, 2177, 2403, 1904, 2435
6665, 730, 731, 2316, 2331
6666, 1938, 1886, 1870, 1662
6667, 880, 720, 881, 2357
6668, 2261, 1954, 2092, 2430
6669, 34, 2296, 2328, 2372
6670, 733, 743, 1454, 2297
6671, 916, 2353, 882, 2378
6672, 1295, 1497, 1755, 2031
6673, 1499, 1756, 2030, 1293
6674, 1353, 433, 1684, 727
6675, 2330, 2357, 722, 2361
6676, 1949, 1950, 1164, 1183
6677, 1544, 1422, 719, 2442
6678, 1195, 2165, 1245, 1196
6679, 716, 719, 1422, 2442
6680, 793, 2303, 224, 2372
6681, 893, 1061, 2293, 2443
6682, 1173, 2299, 1487, 2349
6683, 1619, 1308, 1772, 1958
6684, 1958, 1892, 1308, 1959
6685, 1042, 921, 723, 2390
6686, 2093, 1947, 680, 1360
6687, 1462, 2348, 2288, 2440
6688, 170, 2298, 1406, 2354
6689, 1058, 185, 2302, 2343
6690, 896, 2358, 869, 2371
6691, 610, 616, 2299, 2355
6692, 609, 2300, 615, 2356
6693, 2302, 2343, 185, 2349
6694, 1903, 2176, 2022, 2419
6695, 1369, 2304, 1554, 2361
6696, 1555, 2305, 1370, 2360
6697, 986, 2338, 2309, 2405
6698, 1999, 2261, 1708, 2059
6699, 853, 833, 1023, 2326
6700, 917, 2353, 2292, 2385
6701, 1676, 1889, 1467, 1365
6702, 1306, 1613, 1287, 1960
6703, 721, 1296, 1289, 2411
6704, 1652, 838, 1211, 2326
6705, 1067, 624, 878, 2402
6706, 1588, 1593, 1708, 2387
6707, 2094, 1359, 678, 1948
6708, 1215, 114, 115, 1471
6709, 1220, 2333, 1133, 2345
6710, 2081, 2082, 1613, 1960
6711, 1351, 1711, 1933, 2058
6712, 2168, 1817, 1815, 1304
6713, 2302, 2402, 2323, 2444
6714, 1526, 2117, 2269, 1342
6715, 2032, 1349, 1384, 2059
6716, 668, 2034, 2035, 1766
6717, 626, 2188, 1894, 1243
6718, 1400, 2330, 2291, 2433
6719, 2257, 2007, 1968, 1339
6720, 1785, 1379, 2024, 1378
6721, 1338, 1939, 1885, 1682
6722, 2292, 2331, 1402, 2434
6723, 1156, 1711, 1622, 2262
6724, 2287, 2297, 2293, 2359
6725, 1901, 2403, 2177, 2435
6726, 1956, 1991, 1992, 2436
6727, 1898, 1991, 1956, 2407
6728, 1315, 2224, 1927, 1618
6729, 2036, 2214, 1328, 1516
6730, 970, 971, 891, 2355
6731, 1260, 1752, 1456, 2329
6732, 1567, 2354, 2289, 2433
6733, 1952, 1887, 1185, 1953
6734, 1949, 1888, 1950, 1183
6735, 703, 2145, 1165, 2445
6736, 2144, 694, 1166, 2446
6737, 1682, 1939, 1937, 1259
6738, 1213, 1585, 2308, 2391
6739, 1796, 1382, 1381, 2022
6740, 408, 714, 224, 2303
6741, 1305, 1890, 2182, 2130
6742, 983, 642, 1025, 792
6743, 169, 1057, 2321, 2342
6744, 1249, 1910, 1604, 2445
6745, 1473, 2396, 1299, 2403
6746, 1708, 1799, 1384, 2059
6747, 317, 2323, 2308, 2444
6748, 1458, 1459, 40, 2359
6749, 1865, 2248, 2132, 2337
6750, 810, 1024, 982, 630
6751, 1628, 1792, 2083, 1844
6752, 967, 966, 890, 2356
6753, 2143, 1534, 1368, 1533
6754, 936, 2303, 996, 2372
6755, 36, 663, 227, 2296
6756, 432, 431, 1175, 1168
6757, 447, 1170, 1177, 446
6758, 234, 799, 39, 2306
6759, 1258, 1940, 1938, 1662
6760, 2213, 1893, 2214, 1516
6761, 301, 725, 827, 723
6762, 1909, 1247, 1605, 2446
6763, 1004, 639, 866, 2358
6764, 782, 976, 2334, 2425
6765, 1328, 1776, 2036, 1516
6766, 2262, 1622, 1156, 1951
6767, 1451, 1229, 2332, 2336
6768, 1335, 1368, 1940, 1258
6769, 1258, 1368, 1940, 1662
6770, 781, 783, 33, 2347
6771, 1867, 1178, 1193, 1194
6772, 2286, 2338, 2327, 2424
6773, 902, 955, 1063, 2306
6774, 842, 2291, 1663, 2361
6775, 1664, 2292, 843, 2360
6776, 1534, 1941, 2143, 1368
6777, 2332, 2336, 1857, 2407
6778, 2288, 2301, 2296, 2380
6779, 1058, 2302, 1008, 2343
6780, 1400, 1320, 2330, 2433
6781, 231, 2359, 2293, 2379
6782, 1322, 1402, 2331, 2434
6783, 36, 788, 228, 2303
6784, 1860, 1889, 1928, 1467
6785, 2214, 2236, 2036, 1431
6786, 1386, 1467, 1889, 1365
6787, 2111, 2112, 1994, 2438
6788, 1893, 1765, 1242, 1516
6789, 1686, 287, 706, 2379
6790, 1624, 1791, 1492, 2081
6791, 2054, 2273, 2191, 1707
6792, 2329, 2340, 2285, 2370
6793, 960, 974, 905, 2324
6794, 605, 2, 2253, 1793
6795, 993, 1024, 809, 2371
6796, 836, 2291, 989, 2294
6797, 990, 2292, 837, 2295
6798, 738, 2317, 1001, 2350
6799, 36, 227, 1660, 2375
6800, 1334, 1315, 1927, 1618
6801, 1070, 1022, 781, 2366
6802, 1526, 1928, 2117, 1645
6803, 2250, 2182, 1287, 2082
6804, 1291, 2039, 2191, 1787
6805, 2299, 2343, 2290, 2349
6806, 1037, 933, 893, 2443
6807, 691, 689, 2038, 1375
6808, 1241, 1648, 839, 2315
6809, 2182, 1306, 1287, 1960
6810, 1652, 1240, 838, 2314
6811, 2357, 2361, 2291, 2377
6812, 2289, 2330, 2291, 2357
6813, 1936, 1935, 1349, 2032
6814, 731, 2353, 2331, 2360
6815, 2261, 1623, 1799, 2107
6816, 663, 230, 35, 2288
6817, 1030, 935, 958, 2380
6818, 36, 228, 2296, 2303
6819, 1488, 2326, 1489, 2355
6820, 794, 786, 2347, 2408
6821, 2006, 1969, 1336, 2256
6822, 1195, 1176, 1866, 1196
6823, 1551, 2298, 1406, 2411
6824, 433, 432, 1191, 727
6825, 1682, 1338, 1939, 1259
6826, 1604, 1249, 1671, 1910
6827, 2007, 2257, 1412, 1339
6828, 1901, 1862, 2177, 2403
6829, 2084, 1936, 1285, 2032
6830, 2033, 1934, 1284, 2082
6831, 962, 907, 973, 2323
6832, 1351, 1284, 1352, 2033
6833, 1703, 2359, 231, 2379
6834, 1133, 97, 1220, 2345
6835, 2032, 1935, 1349, 2059
6836, 1918, 1294, 2145, 2235
6837, 2144, 1917, 2234, 1292
6838, 429, 1214, 1215, 1181
6839, 1650, 302, 2304, 2361
6840, 314, 1651, 2305, 2360
6841, 2292, 2331, 2290, 2353
6842, 1354, 121, 434, 2305
6843, 126, 1356, 449, 2304
6844, 2285, 2340, 821, 2370
6845, 217, 809, 1024, 2371
6846, 1810, 1800, 384, 2322
6847, 1991, 1993, 2109, 2407
6848, 2039, 1921, 1608, 1291
6849, 1645, 2117, 1342, 1257
6850, 1386, 2155, 1467, 1645
6851, 971, 977, 891, 2312
6852, 1960, 1890, 1306, 1957
6853, 1513, 1838, 1183, 1209
6854, 813, 809, 217, 2371
6855, 994, 2306, 937, 2371
6856, 2280, 1674, 1310, 1756
6857, 1755, 1675, 1309, 2281
6858, 2256, 1336, 2006, 1411
6859, 1334, 1927, 2156, 1618
6860, 1284, 1287, 1624, 2082
6861, 1554, 2304, 1678, 2361
6862, 1680, 2305, 1555, 2360
6863, 1200, 1906, 1237, 1701
6864, 1066, 899, 979, 2321
6865, 1920, 2035, 2034, 1535
6866, 1338, 2142, 1939, 1781
6867, 1032, 929, 940, 2385
6868, 1838, 1888, 1183, 1209
6869, 432, 2308, 728, 2406
6870, 994, 993, 812, 2371
6871, 1306, 1387, 1960, 1957
6872, 224, 1025, 790, 2372
6873, 2288, 2327, 1462, 2373
6874, 1762, 1615, 1407, 2316
6875, 1400, 2291, 2330, 2361
6876, 2027, 1675, 1497, 2281
6877, 1674, 2280, 2026, 1499
6878, 1402, 2331, 2292, 2360
6879, 1886, 1938, 1940, 1662
6880, 625, 2316, 2311, 2444
6881, 800, 413, 234, 2306
6882, 2128, 1910, 1671, 1943
6883, 1520, 1438, 1943, 1969
6884, 974, 960, 1010, 2390
6885, 1469, 227, 35, 1465
6886, 2042, 1937, 2165, 1281
6887, 1567, 1483, 2354, 2433
6888, 669, 1556, 670, 2420
6889, 2165, 2042, 1281, 1196
6890, 1212, 1677, 1616, 2424
6891, 885, 907, 878, 2402
6892, 1297, 2316, 730, 2391
6893, 1480, 1275, 609, 2356
6894, 1207, 1185, 1512, 1836
6895, 1944, 1672, 1518, 1437
6896, 1362, 2404, 2397, 2417
6897, 1162, 1161, 1185, 1952
6898, 901, 313, 998, 2429
6899, 900, 999, 301, 2428
6900, 1338, 1525, 2142, 1781
6901, 1604, 1127, 1249, 2445
6902, 1434, 2012, 2249, 2396
6903, 1247, 1672, 1909, 1605
6904, 1454, 1346, 733, 2297
6905, 909, 2363, 2287, 2410
6906, 1457, 2287, 1455, 2359
6907, 301, 722, 2357, 2361
6908, 1247, 1128, 1605, 2446
6909, 1535, 2034, 1536, 1766
6910, 1280, 2043, 2166, 1194
6911, 1608, 1566, 2037, 1375
6912, 1280, 1870, 2241, 1649
6913, 1007, 2321, 1057, 2342
6914, 1185, 1207, 1887, 1836
6915, 895, 934, 935, 2301
6916, 781, 33, 783, 2389
6917, 1784, 1427, 1519, 2173
6918, 1780, 1302, 1439, 1821
6919, 1152, 2307, 447, 2399
6920, 1428, 1517, 2172, 1783
6921, 804, 803, 2344, 2437
6922, 1628, 1286, 1285, 2084
6923, 2155, 2117, 1928, 1645
6924, 1028, 2314, 968, 2415
6925, 1023, 833, 873, 2326
6926, 1535, 1328, 2035, 1298
6927, 1032, 2299, 969, 2343
6928, 1213, 1132, 1154, 2308
6929, 1450, 2345, 2112, 2438
6930, 2292, 2360, 2353, 2378
6931, 36, 2303, 2296, 2375
6932, 1938, 2043, 2166, 1280
6933, 1368, 1940, 2143, 1533
6934, 730, 1267, 1266, 2360
6935, 32, 2293, 2306, 2358
6936, 1355, 1496, 1356, 449
6937, 1354, 1353, 434, 1498
6938, 1951, 2108, 1218, 1950
6939, 1387, 1613, 1306, 1960
6940, 1619, 1334, 2156, 1618
6941, 2275, 1992, 1390, 2436
6942, 1654, 1299, 2396, 2403
6943, 2115, 1243, 1707, 1720
6944, 1031, 965, 2300, 2342
6945, 915, 2291, 914, 2357
6946, 1676, 1365, 1687, 2417
6947, 899, 1057, 1007, 2321
6948, 2239, 2156, 1631, 1958
6949, 1259, 1245, 2165, 1196
6950, 1761, 2298, 1614, 2354
6951, 1886, 1940, 1941, 1368
6952, 2111, 1450, 2112, 2438
6953, 39, 1703, 231, 2379
6954, 2310, 2286, 2364, 2400
6955, 221, 2366, 2334, 2389
6956, 301, 2361, 2357, 2377
6957, 1512, 1185, 1670, 1836
6958, 1243, 2115, 2272, 1720
6959, 1053, 900, 880, 2377
6960, 901, 1054, 882, 2378
6961, 1885, 1942, 1939, 1713
6962, 1183, 1669, 1838, 1513
6963, 1258, 2166, 1244, 1194
6964, 1274, 1485, 610, 2355
6965, 1315, 2035, 1328, 1298
6966, 834, 1014, 874, 2294
6967, 1368, 1886, 1940, 1662
6968, 832, 2305, 843, 2378
6969, 842, 2304, 831, 2377
6970, 1911, 1944, 1909, 1672
6971, 1927, 2137, 2076, 1315
6972, 1653, 1871, 2240, 1281
6973, 1586, 1219, 1186, 1953
6974, 2248, 1436, 1474, 2011
6975, 2335, 2374, 1146, 2430
6976, 773, 1988, 774, 2345
6977, 1601, 2043, 1280, 1194
6978, 1013, 835, 875, 2295
6979, 2107, 1623, 1219, 1953
6980, 1779, 1304, 1817, 1440
6981, 1937, 1885, 1939, 1682
6982, 1174, 1483, 2300, 2354
6983, 2262, 2414, 2090, 2432
6984, 995, 790, 1025, 2372
6985, 679, 1596, 1470, 2162
6986, 1349, 1384, 1350, 2032
6987, 448, 724, 1192, 2399
6988, 967, 890, 977, 2312
6989, 1713, 1885, 2146, 1408
6990, 1291, 2191, 2188, 1777
6991, 912, 317, 2302, 2323
6992, 2114, 2271, 2142, 1525
6993, 843, 856, 1680, 2305
6994, 1678, 855, 842, 2304
6995, 403, 789, 228, 2303
6996, 1376, 2401, 2392, 2420
6997, 813, 812, 809, 2371
6998, 1231, 2332, 1230, 2365
6999, 1600, 1281, 2042, 1196
7000, 979, 942, 913, 2321
7001, 1519, 1427, 1193, 1867
7002, 432, 1175, 1539, 1167
7003, 1177, 1538, 1169, 447
7004, 2281, 1755, 1497, 2031
7005, 2030, 2280, 1756, 1499
7006, 1195, 1517, 1866, 1428
7007, 1772, 2239, 1631, 1958
7008, 1262, 1946, 1309, 2445
7009, 1310, 1945, 1263, 2446
7010, 1619, 2156, 1891, 1958
7011, 916, 2292, 917, 2353
7012, 1769, 1550, 2311, 2391
7013, 313, 2353, 731, 2360
7014, 1135, 2325, 377, 2351
7015, 798, 795, 1062, 2303
7016, 2058, 1622, 1711, 2262
7017, 1680, 1664, 843, 2360
7018, 1663, 1678, 842, 2361
7019, 1481, 1483, 1542, 2300
7020, 625, 1407, 1769, 2316
7021, 1486, 1543, 1487, 2299
7022, 694, 2069, 1540, 1773
7023, 602, 2298, 2321, 2400
7024, 703, 1774, 1541, 2068
7025, 1193, 1244, 2196, 2166
7026, 1349, 1232, 1588, 2387
7027, 729, 2302, 731, 2353
7028, 2155, 1928, 1467, 1645
7029, 615, 607, 621, 2300
7030, 616, 622, 608, 2299
7031, 717, 221, 2318, 2334
7032, 1713, 1348, 1942, 1557
7033, 2333, 2369, 1849, 2376
7034, 721, 2298, 722, 2330
7035, 1245, 2195, 2165, 1195
7036, 2168, 1815, 1906, 1237
7037, 1984, 779, 1983, 780
7038, 815, 120, 811, 2346
7039, 1542, 1598, 1240, 2294
7040, 1599, 1543, 1241, 2295
7041, 1480, 609, 615, 2356
7042, 2353, 2360, 313, 2378
7043, 1623, 2107, 1954, 1953
7044, 1791, 1624, 1613, 2081
7045, 692, 861, 2152, 1665
7046, 1611, 1346, 1457, 2297
7047, 2043, 1938, 1870, 1280
7048, 1407, 2316, 186, 2349
7049, 305, 2324, 2364, 2390
7050, 1772, 1308, 1432, 1959
7051, 1451, 2336, 2332, 2407
7052, 1959, 2181, 1286, 2084
7053, 2182, 1890, 1306, 1960
7054, 1300, 1436, 1474, 2248
7055, 1985, 1983, 779, 780
7056, 2076, 2035, 1328, 1315
7057, 1497, 1496, 1683, 448
7058, 1684, 1499, 433, 1498
7059, 1754, 2147, 1886, 1415
7060, 1672, 1944, 1909, 1393
7061, 426, 1730, 710, 2423
7062, 224, 793, 408, 2303
7063, 218, 2293, 2358, 2443
7064, 1666, 702, 862, 2151
7065, 720, 880, 301, 2357
7066, 991, 2301, 934, 2341
7067, 1525, 2142, 1942, 1338
7068, 2042, 2240, 1871, 1281
7069, 1376, 2420, 2392, 2421
7070, 1928, 1526, 1180, 1467
7071, 1350, 1628, 2084, 1844
7072, 1379, 1377, 2024, 1378
7073, 234, 666, 667, 2293
7074, 2300, 2342, 607, 2354
7075, 223, 2301, 2296, 2442
7076, 2302, 2290, 2343, 2349
7077, 1221, 2369, 2333, 2376
7078, 610, 1485, 616, 2355
7079, 913, 2321, 305, 2324
7080, 1624, 1352, 2082, 1845
7081, 996, 1062, 795, 2303
7082, 416, 804, 2344, 2398
7083, 988, 947, 1037, 2293
7084, 1567, 1483, 1715, 2354
7085, 1380, 1381, 1382, 2022
7086, 1711, 1383, 1622, 2058
7087, 1239, 1199, 1700, 1905
7088, 1810, 2322, 778, 2426
7089, 2083, 1792, 1500, 1844
7090, 833, 854, 852, 2326
7091, 885, 2313, 907, 2402
7092, 2084, 1628, 1432, 2083
7093, 914, 1053, 880, 2377
7094, 1054, 916, 882, 2378
7095, 722, 305, 2321, 2400
7096, 794, 107, 786, 2408
7097, 2266, 2043, 1601, 1194
7098, 120, 2346, 815, 2423
7099, 776, 377, 2325, 2351
7100, 1617, 1213, 1154, 2308
7101, 1217, 408, 1182, 1216
7102, 1087, 2034, 2120, 1536
7103, 722, 2298, 306, 2400
7104, 705, 2317, 220, 2344
7105, 1630, 1911, 1945, 2446
7106, 853, 2315, 839, 2326
7107, 1941, 1940, 2143, 1368
7108, 2033, 1351, 1933, 2058
7109, 1629, 1946, 1912, 2445
7110, 2043, 1870, 2241, 1280
7111, 1294, 1373, 2031, 2235
7112, 1372, 2030, 2234, 1292
7113, 1937, 2042, 1871, 1281
7114, 1566, 691, 2037, 1375
7115, 1384, 1350, 2032, 1873
7116, 1885, 1713, 1682, 1408
7117, 614, 611, 610, 2312
7118, 613, 609, 611, 2312
7119, 1431, 1328, 2214, 1516
7120, 898, 624, 1067, 2302
7121, 1068, 2347, 1022, 2366
7122, 927, 1031, 941, 2384
7123, 40, 2329, 1459, 2370
7124, 1447, 584, 1396, 2441
7125, 1544, 1347, 2301, 2440
7126, 623, 2302, 2316, 2444
7127, 1762, 2316, 1407, 2349
7128, 1389, 1989, 2228, 1990
7129, 1933, 1934, 1351, 2033
7130, 1601, 446, 1178, 1190
7131, 1769, 1549, 1550, 2391
7132, 673, 2070, 1410, 1547
7133, 623, 625, 2311, 2444
7134, 399, 2334, 781, 2389
7135, 1470, 1718, 1507, 2086
7136, 971, 970, 972, 2315
7137, 1754, 1941, 2147, 1313
7138, 2291, 2289, 2357, 2384
7139, 1158, 2335, 1149, 2430
7140, 821, 2340, 2285, 2406
7141, 1294, 1373, 1295, 2031
7142, 1372, 1293, 2030, 1292
7143, 2229, 1692, 1391, 1991
7144, 1600, 1176, 431, 1188
7145, 1707, 2054, 2115, 1534
7146, 1382, 1474, 1436, 2011
7147, 623, 2316, 625, 2444
7148, 1473, 1434, 2012, 1379
7149, 1387, 1386, 1743, 1957
7150, 851, 835, 2295, 2315
7151, 850, 2294, 834, 2314
7152, 1512, 1780, 1439, 1821
7153, 1950, 1587, 1218, 1184
7154, 33, 2347, 783, 2408
7155, 33, 783, 2389, 2408
7156, 1339, 2195, 2257, 1245
7157, 1339, 1968, 2195, 1517
7158, 970, 1032, 940, 2299
7159, 1969, 1519, 1336, 2196
7160, 1025, 224, 790, 792
7161, 1549, 1297, 1288, 2391
7162, 1513, 1839, 1838, 1209
7163, 1031, 966, 941, 2300
7164, 809, 217, 1024, 810
7165, 1603, 774, 1698, 1988
7166, 1600, 2042, 2265, 1196
7167, 1264, 1265, 721, 2361
7168, 1879, 1821, 1302, 2167
7169, 628, 2213, 1776, 629
7170, 2188, 626, 1291, 1243
7171, 938, 923, 887, 2383
7172, 1480, 1174, 1483, 2300
7173, 2256, 1336, 1244, 2196
7174, 871, 872, 897, 2328
7175, 1622, 1164, 1155, 1951
7176, 1354, 1681, 121, 2305
7177, 1356, 126, 1679, 2304
7178, 1440, 1817, 1779, 1513
7179, 1521, 2312, 1488, 2355
7180, 2224, 2156, 1927, 1618
7181, 2290, 2292, 2353, 2385
7182, 2177, 1904, 2024, 2435
7183, 1188, 1168, 431, 2370
7184, 1621, 1572, 2376, 2404
7185, 1533, 1940, 2073, 1335
7186, 431, 1168, 2308, 2370
7187, 869, 896, 870, 2358
7188, 1649, 227, 2241, 1469
7189, 1621, 1572, 2404, 2417
7190, 2289, 2291, 2330, 2433
7191, 1521, 1482, 2312, 2356
7192, 2292, 2290, 2331, 2434
7193, 1317, 752, 1931, 1967
7194, 414, 802, 1063, 2306
7195, 610, 2299, 617, 2355
7196, 618, 2300, 609, 2356
7197, 1674, 2026, 2280, 1783
7198, 1784, 1675, 2027, 2281
7199, 2120, 2034, 668, 1536
7200, 1525, 1942, 2114, 1557
7201, 1732, 1560, 2200, 2108
7202, 790, 795, 793, 2372
7203, 1536, 628, 20, 1535
7204, 1328, 2036, 2236, 1431
7205, 2033, 1383, 1351, 2058
7206, 227, 1465, 1660, 2348
7207, 989, 2291, 915, 2384
7208, 1311, 1752, 190, 2311
7209, 2285, 2311, 2391, 2444
7210, 729, 313, 882, 2353
7211, 1485, 1487, 1173, 2299
7212, 1885, 1871, 114, 1682
7213, 2255, 2127, 1980, 2418
7214, 39, 799, 114, 2306
7215, 1810, 2335, 2322, 2426
7216, 2254, 1979, 2126, 2422
7217, 1701, 1906, 1237, 1326
7218, 215, 2346, 811, 2423
7219, 589, 601, 591, 2318
7220, 751, 739, 741, 2317
7221, 34, 2296, 223, 2328
7222, 2145, 1294, 1262, 2031
7223, 2164, 2374, 2335, 2430
7224, 1263, 2144, 2030, 1292
7225, 1338, 1942, 1525, 1713
7226, 1338, 1939, 1942, 1713
7227, 917, 2292, 990, 2385
7228, 1886, 1941, 2147, 1754
7229, 1992, 2229, 1391, 1991
7230, 2142, 1939, 1942, 1338
7231, 1888, 1838, 1839, 1209
7232, 1817, 1839, 1838, 1513
7233, 662, 663, 228, 2296
7234, 1942, 2146, 1348, 1713
7235, 1881, 1817, 2168, 1304
7236, 1416, 1732, 1775, 2200
7237, 2269, 2191, 1787, 1444
7238, 1728, 1293, 2003, 1372
7239, 1295, 1373, 1729, 2002
7240, 1460, 231, 2240, 1653
7241, 1208, 1186, 1887, 1971
7242, 991, 2301, 588, 2382
7243, 1639, 682, 2161, 1597
7244, 2241, 2043, 1280, 1469
7245, 2058, 1711, 1998, 2262
7246, 1905, 2167, 1239, 1819
7247, 1335, 1940, 1997, 1258
7248, 1387, 1306, 1386, 1957
7249, 1118, 1470, 1596, 2162
7250, 2309, 157, 2405, 2439
7251, 1518, 1968, 1944, 1437
7252, 587, 2431, 2318, 2441
7253, 973, 1009, 962, 2406
7254, 1281, 1682, 1937, 1259
7255, 1870, 1280, 1662, 1649
7256, 1893, 1765, 629, 1242
7257, 102, 779, 389, 2337
7258, 1212, 1616, 2307, 2424
7259, 1262, 2145, 1946, 2445
7260, 1170, 1178, 446, 1190
7261, 1411, 2073, 2256, 1335
7262, 1751, 2310, 1312, 2439
7263, 417, 806, 2398, 2423
7264, 32, 2293, 706, 2379
7265, 36, 228, 663, 2296
7266, 1945, 2144, 1263, 2446
7267, 1966, 2376, 2409, 2417
7268, 1692, 1991, 2109, 2407
7269, 751, 738, 734, 2317
7270, 2386, 2403, 1901, 2422
7271, 629, 2271, 1893, 1242
7272, 2284, 1323, 1718, 2278
7273, 2289, 2342, 2300, 2354
7274, 1739, 2101, 1947, 1344
7275, 1412, 2257, 2072, 1337
7276, 2392, 2401, 1868, 2420
7277, 157, 2310, 602, 2400
7278, 1941, 1534, 1754, 1368
7279, 1674, 2026, 1428, 1539
7280, 1754, 1534, 1941, 1313
7281, 109, 788, 36, 2303
7282, 227, 1469, 1660, 1465
7283, 34, 2303, 2296, 2372
7284, 1627, 1989, 1389, 2438
7285, 1355, 1496, 449, 448
7286, 433, 434, 1353, 1498
7287, 1427, 1675, 1538, 2027
7288, 1207, 1208, 1186, 1887
7289, 804, 2368, 1020, 2437
7290, 226, 794, 2347, 2408
7291, 1323, 1750, 1507, 2278
7292, 1941, 2115, 2054, 1534
7293, 1386, 1743, 2155, 1645
7294, 1073, 2121, 2037, 1612
7295, 1059, 2340, 821, 2406
7296, 1711, 1351, 1383, 2058
7297, 1709, 718, 717, 2334
7298, 1783, 1630, 2172, 1310
7299, 1176, 431, 1188, 1168
7300, 2191, 2188, 2039, 1291
7301, 1512, 1207, 1836, 1837
7302, 1438, 1520, 1336, 1969
7303, 1784, 1629, 1309, 2173
7304, 1037, 893, 2293, 2443
7305, 2256, 1969, 1336, 2196
7306, 1635, 2157, 671, 1547
7307, 2114, 2271, 1525, 1242
7308, 1768, 2364, 1569, 2424
7309, 2257, 1968, 2195, 1339
7310, 1140, 2322, 1146, 2335
7311, 433, 1539, 1499, 1191
7312, 1538, 1497, 1192, 448
7313, 170, 604, 1406, 2298
7314, 1855, 1923, 2141, 2319
7315, 721, 2298, 1296, 2411
7316, 157, 2310, 2400, 2405
7317, 851, 1599, 1241, 2295
7318, 1350, 1384, 1385, 1873
7319, 1598, 850, 1240, 2294
7320, 2072, 1939, 1781, 1337
7321, 1455, 2329, 2287, 2388
7322, 1496, 1497, 2031, 448
7323, 1499, 2030, 433, 1498
7324, 1952, 1185, 1887, 1836
7325, 1888, 1949, 1838, 1183
7326, 1518, 1339, 1968, 1437
7327, 1512, 1836, 1821, 1837
7328, 1132, 318, 727, 2308
7329, 1601, 1280, 2043, 1469
7330, 1462, 2288, 2373, 2440
7331, 682, 2161, 2085, 1639
7332, 632, 1024, 980, 2371
7333, 1949, 1164, 1163, 1183
7334, 1280, 1258, 1938, 1662
7335, 941, 2294, 931, 2384
7336, 1663, 2291, 1400, 2361
7337, 1402, 2292, 1664, 2360
7338, 1631, 1619, 2156, 1618
7339, 1352, 1383, 1351, 2033
7340, 1302, 1439, 1821, 1879
7341, 1345, 678, 1948, 2100
7342, 1245, 2165, 1996, 1259
7343, 1653, 1682, 1871, 1281
7344, 1178, 1867, 2266, 1194
7345, 729, 912, 317, 2302
7346, 2253, 1874, 1793, 1283
7347, 874, 968, 1028, 2314
7348, 1025, 645, 981, 2372
7349, 1256, 1313, 2054, 1444
7350, 1633, 686, 2148, 1546
7351, 446, 829, 2286, 2338
7352, 1605, 1672, 1909, 1393
7353, 2230, 2393, 1993, 2407
7354, 1407, 625, 186, 2316
7355, 725, 825, 723, 2390
7356, 930, 2295, 940, 2385
7357, 1384, 1561, 1873, 2107
7358, 1255, 2224, 1877, 1515
7359, 2374, 2418, 1150, 2430
7360, 220, 2368, 2398, 2437
7361, 1984, 1435, 1300, 2248
7362, 2056, 2117, 2155, 1645
7363, 2130, 1966, 2409, 2417
7364, 1384, 1873, 2059, 2107
7365, 1601, 1178, 2266, 1194
7366, 31, 2346, 2368, 2394
7367, 2301, 2348, 2296, 2442
7368, 1207, 1887, 1836, 1837
7369, 1692, 1121, 2110, 2109
7370, 1023, 972, 875, 2315
7371, 1383, 1352, 1872, 2033
7372, 1337, 1245, 1996, 1259
7373, 1211, 1647, 1484, 2326
7374, 1432, 1959, 2084, 2083
7375, 2146, 1942, 1885, 1713
7376, 1415, 1886, 1754, 1662
7377, 1652, 1484, 1240, 2314
7378, 1489, 1648, 1241, 2315
7379, 1854, 1857, 2332, 2336
7380, 623, 2402, 2302, 2444
7381, 313, 901, 2378, 2429
7382, 900, 301, 2377, 2428
7383, 1480, 2300, 1481, 2356
7384, 938, 887, 2366, 2383
7385, 1239, 1327, 1302, 2167
7386, 1304, 1881, 1817, 1440
7387, 1472, 1415, 109, 1217
7388, 898, 185, 624, 2302
7389, 1175, 2026, 432, 1539
7390, 1538, 1177, 2027, 447
7391, 1966, 2404, 2376, 2417
7392, 1791, 1613, 1725, 2081
7393, 2265, 1866, 1176, 1196
7394, 1436, 1736, 1382, 2011
7395, 1734, 2012, 1434, 1379
7396, 679, 1668, 1596, 2162
7397, 673, 2070, 2217, 1410
7398, 834, 874, 852, 2314
7399, 1254, 1877, 2053, 1431
7400, 706, 32, 218, 2293
7401, 2296, 2348, 2288, 2380
7402, 669, 670, 1861, 2420
7403, 1794, 2114, 2053, 1557
7404, 1631, 2156, 2055, 1618
7405, 913, 720, 305, 2321
7406, 1244, 1997, 2166, 1258
7407, 835, 853, 875, 2315
7408, 1536, 20, 2034, 1535
7409, 1839, 1817, 1440, 1513
7410, 686, 2148, 2079, 1633
7411, 986, 884, 908, 2338
7412, 991, 588, 1060, 2382
7413, 1603, 1988, 2112, 2345
7414, 1954, 1952, 1162, 1953
7415, 377, 379, 1135, 2351
7416, 1061, 988, 1037, 2293
7417, 2090, 1951, 2262, 2432
7418, 1868, 2392, 2420, 2421
7419, 1710, 705, 707, 2344
7420, 723, 921, 305, 2390
7421, 2107, 2261, 1623, 1954
7422, 1677, 1768, 1569, 2424
7423, 801, 813, 115, 2306
7424, 1972, 1587, 1950, 1184
7425, 2159, 1199, 1700, 2175
7426, 1486, 2299, 1485, 2355
7427, 1972, 1888, 1210, 1184
7428, 1286, 1432, 1308, 1959
7429, 1466, 1469, 35, 1465
7430, 1854, 2319, 1802, 2336
7431, 1327, 1239, 1700, 1905
7432, 2232, 2112, 1988, 2345
7433, 1867, 1177, 1178, 446
7434, 1176, 1866, 431, 1175
7435, 587, 1015, 591, 2318
7436, 812, 1063, 994, 2306
7437, 721, 2330, 722, 2361
7438, 741, 1016, 738, 2317
7439, 109, 1870, 1662, 1649
7440, 2272, 17, 626, 1243
7441, 1304, 1237, 2168, 1326
7442, 2265, 1176, 1600, 1196
7443, 932, 992, 963, 2350
7444, 2058, 1383, 1622, 2108
7445, 730, 2331, 1267, 2360
7446, 1172, 2337, 1474, 2419
7447, 1237, 1906, 2168, 1326
7448, 1912, 1629, 1520, 2173
7449, 611, 612, 610, 2312
7450, 612, 611, 609, 2312
7451, 1627, 1389, 1989, 2228
7452, 1352, 2033, 2082, 1845
7453, 806, 1020, 804, 2346
7454, 1013, 1049, 940, 2295
7455, 921, 960, 2324, 2390
7456, 1518, 1911, 2172, 1630
7457, 1339, 2007, 1968, 1437
7458, 426, 215, 811, 2423
7459, 991, 935, 934, 2301
7460, 434, 819, 433, 728
7461, 603, 899, 1066, 2321
7462, 941, 1050, 1014, 2294
7463, 1335, 1997, 1244, 1258
7464, 1844, 2084, 1350, 2032
7465, 1004, 639, 2358, 2362
7466, 1627, 1080, 2111, 2112
7467, 701, 703, 1165, 2445
7468, 1244, 1519, 1193, 2196
7469, 1850, 2333, 1849, 2376
7470, 2043, 2266, 2166, 1194
7471, 865, 652, 1003, 2328
7472, 429, 1214, 1181, 711
7473, 693, 1166, 694, 2446
7474, 818, 431, 2308, 2406
7475, 1948, 1749, 1345, 2100
7476, 1877, 2055, 2224, 1255
7477, 1621, 1572, 1226, 2376
7478, 954, 1062, 996, 2303
7479, 1245, 1517, 2195, 1195
7480, 1389, 1388, 1362, 1990
7481, 2217, 2000, 673, 1410
7482, 1971, 1586, 1186, 1953
7483, 603, 169, 899, 2321
7484, 737, 2297, 992, 2410
7485, 932, 933, 992, 2443
7486, 1274, 1521, 1488, 2355
7487, 1821, 1439, 1512, 1837
7488, 1342, 1878, 2269, 1444
7489, 1937, 1996, 2165, 1259
7490, 32, 218, 2293, 2358
7491, 1181, 711, 287, 2379
7492, 680, 1947, 2101, 1344
7493, 2308, 2323, 317, 2406
7494, 1378, 1607, 1360, 2435
7495, 1888, 1209, 1210, 1184
7496, 2212, 1970, 1278, 2187
7497, 1342, 1526, 2117, 1645
7498, 829, 2338, 1056, 2390
7499, 906, 984, 909, 2340
7500, 2159, 676, 1199, 2175
7501, 414, 801, 802, 2306
7502, 971, 972, 1017, 2326
7503, 1130, 710, 1730, 2423
7504, 1762, 1407, 186, 2349
7505, 628, 1776, 1920, 1535
7506, 1315, 2076, 2224, 1515
7507, 1566, 1073, 2037, 1612
7508, 1473, 1434, 1299, 2396
7509, 1638, 2066, 672, 1636
7510, 671, 2078, 2157, 1635
7511, 730, 731, 2331, 2360
7512, 2082, 2182, 1287, 1960
7513, 1212, 1616, 1152, 2307
7514, 1743, 2056, 2155, 1645
7515, 2161, 1085, 1639, 1597
7516, 1900, 2418, 2374, 2430
7517, 1862, 1901, 1843, 2386
7518, 1467, 1928, 1526, 1645
7519, 1020, 2346, 1069, 2368
7520, 1030, 946, 1002, 2296
7521, 1256, 2054, 1878, 1444
7522, 1469, 1649, 227, 1660
7523, 1635, 1117, 2157, 1547
7524, 1521, 1275, 1482, 2356
7525, 1140, 1574, 2322, 2335
7526, 109, 1870, 1886, 1662
7527, 1892, 1959, 2181, 2421
7528, 431, 2285, 821, 2370
7529, 120, 1753, 1527, 2423
7530, 2289, 2384, 2291, 2433
7531, 1311, 1769, 1550, 2311
7532, 287, 711, 32, 2379
7533, 2042, 2165, 2265, 1196
7534, 449, 827, 725, 448
7535, 991, 934, 964, 2341
7536, 1377, 2051, 1947, 1344
7537, 1862, 1901, 2386, 2403
7538, 2056, 2117, 1645, 1257
7539, 1525, 2271, 2142, 1137
7540, 1848, 2369, 2320, 2413
7541, 2307, 2390, 447, 2399
7542, 1022, 783, 781, 2347
7543, 1561, 1623, 1219, 2107
7544, 1118, 2284, 1718, 2086
7545, 1047, 726, 1034, 819
7546, 33, 2366, 2347, 2395
7547, 2292, 2385, 2290, 2434
7548, 226, 411, 794, 2408
7549, 2286, 2307, 2364, 2390
7550, 614, 610, 617, 2355
7551, 725, 447, 825, 2390
7552, 1663, 1554, 1678, 2361
7553, 1680, 1555, 1664, 2360
7554, 1148, 2422, 2386, 2432
7555, 618, 609, 613, 2356
7556, 793, 112, 408, 2303
7557, 1390, 1992, 1391, 2436
7558, 1029, 737, 992, 2410
7559, 1242, 1525, 2114, 1557
7560, 969, 617, 620, 2299
7561, 2053, 1254, 1431, 1348
7562, 2166, 1867, 1193, 1194
7563, 1857, 2336, 2095, 2407
7564, 1048, 723, 827, 1033
7565, 1770, 1312, 1552, 2310
7566, 1808, 2198, 2339, 2351
7567, 1942, 2053, 2114, 1557
7568, 2286, 2405, 2310, 2439
7569, 21, 628, 1536, 1535
7570, 2115, 2273, 2054, 1707
7571, 1406, 2298, 604, 2411
7572, 1471, 1215, 114, 1408
7573, 1420, 2334, 399, 2389
7574, 2286, 2338, 829, 2390
7575, 2166, 1997, 1938, 1258
7576, 793, 797, 112, 2303
7577, 1969, 1336, 1438, 2006
7578, 944, 2341, 894, 2352
7579, 2240, 2042, 1460, 1281
7580, 1077, 2085, 2161, 1639
7581, 798, 797, 412, 2303
7582, 295, 714, 1182, 2375
7583, 1460, 1703, 231, 1653
7584, 965, 619, 618, 2300
7585, 383, 2141, 778, 2319
7586, 894, 2328, 1003, 2352
7587, 1576, 2334, 1420, 2389
7588, 617, 610, 616, 2299
7589, 615, 609, 618, 2300
7590, 1244, 2256, 2196, 1997
7591, 1394, 1671, 1438, 1943
7592, 1712, 1561, 1219, 2045
7593, 844, 2291, 836, 2294
7594, 231, 39, 2240, 1653
7595, 837, 2292, 845, 2295
7596, 1996, 2257, 2195, 1245
7597, 1151, 1152, 1169, 2399
7598, 1900, 2255, 2418, 2430
7599, 1295, 1755, 1262, 2031
7600, 1756, 1263, 2030, 1293
7601, 2288, 2348, 2301, 2440
7602, 2239, 2156, 2055, 1631
7603, 1432, 1792, 1197, 2083
7604, 426, 1792, 1500, 2083
7605, 1037, 2293, 947, 2363
7606, 157, 2400, 602, 2405
7607, 1561, 1799, 1623, 2107
7608, 1707, 2191, 2054, 1444
7609, 1996, 1937, 1939, 1259
7610, 1682, 1871, 114, 1653
7611, 1226, 1621, 2376, 2404
7612, 776, 2339, 1575, 2351
7613, 1753, 1130, 1527, 2423
7614, 825, 1042, 723, 2390
7615, 2081, 1492, 1624, 1845
7616, 1074, 2121, 1073, 1612
7617, 914, 915, 989, 2291
7618, 1186, 1219, 1162, 1953
7619, 990, 917, 916, 2292
7620, 2183, 1943, 1438, 2006
7621, 1874, 1514, 605, 1793
7622, 1628, 1792, 1432, 2083
7623, 1794, 1242, 2114, 1557
7624, 2310, 2405, 157, 2439
7625, 431, 1168, 432, 2308
7626, 1489, 1488, 1647, 2326
7627, 879, 959, 905, 2405
7628, 1965, 2005, 1858, 2365
7629, 2059, 2261, 1799, 2107
7630, 1195, 1866, 2165, 1196
7631, 1965, 2367, 2392, 2421
7632, 1450, 2111, 1627, 2438
7633, 1315, 1328, 2076, 1515
7634, 306, 2400, 2298, 2411
7635, 32, 706, 287, 2379
7636, 1800, 2322, 1829, 2337
7637, 801, 799, 413, 2306
7638, 2220, 1436, 1123, 2211
7639, 2210, 1434, 1082, 2221
7640, 1657, 2055, 429, 1255
7641, 1942, 2114, 2142, 1525
7642, 2042, 1460, 1281, 1600
7643, 1497, 1538, 2027, 448
7644, 1539, 2026, 433, 1499
7645, 924, 2317, 925, 2381
7646, 1989, 1627, 2111, 2438
7647, 1561, 1385, 1384, 1873
7648, 642, 792, 983, 2416
7649, 416, 804, 803, 2344
7650, 2076, 2036, 2236, 1328
7651, 1055, 1030, 1002, 2296
7652, 2053, 1942, 1348, 1557
7653, 1462, 1464, 2348, 2440
7654, 448, 1192, 447, 2399
7655, 2034, 668, 1536, 1766
7656, 2108, 1622, 2058, 2262
7657, 1380, 1345, 1948, 2052
7658, 861, 2152, 62, 692
7659, 157, 2309, 582, 2439
7660, 982, 810, 630, 2412
7661, 1633, 2148, 1076, 1546
7662, 627, 18, 2037, 1566
7663, 627, 2188, 626, 1291
7664, 1211, 838, 854, 2326
7665, 1576, 718, 1709, 2334
7666, 811, 2346, 120, 2423
7667, 1126, 1596, 1668, 2162
7668, 1265, 2330, 721, 2361
7669, 782, 781, 399, 2334
7670, 1943, 1438, 1394, 2183
7671, 1690, 1389, 2228, 1990
7672, 1200, 2174, 2160, 1701
7673, 2086, 679, 1470, 2162
7674, 854, 838, 852, 2326
7675, 344, 1506, 754, 350
7676, 1506, 344, 757, 350
7677, 1402, 1664, 1321, 2360
7678, 1663, 1400, 1319, 2361
7679, 1428, 2026, 1866, 1175
7680, 629, 1776, 1765, 1516
7681, 862, 702, 66, 2151
7682, 1427, 1177, 1867, 2027
7683, 2172, 2026, 1428, 1783
7684, 1879, 1302, 1358, 2167
7685, 2376, 2404, 1897, 2438
7686, 1863, 2133, 2134, 2396
7687, 1560, 1775, 1732, 2200
7688, 306, 725, 2390, 2399
7689, 1294, 1295, 1262, 2031
7690, 1293, 1263, 2030, 1292
7691, 1784, 1427, 2173, 2027
7692, 1844, 1350, 1385, 1873
7693, 2257, 1996, 2072, 1337
7694, 1938, 1997, 1940, 1258
7695, 1657, 2239, 2055, 1631
7696, 1239, 1327, 2167, 1905
7697, 1255, 1618, 2224, 1515
7698, 757, 1506, 350, 2061
7699, 350, 1506, 754, 2061
7700, 1293, 2030, 2003, 1372
7701, 1373, 1295, 2031, 2002
7702, 587, 1015, 2318, 2431
7703, 1994, 2232, 2096, 2345
7704, 40, 1798, 431, 2370
7705, 986, 908, 987, 2309
7706, 2214, 1431, 1516, 1794
7707, 711, 2306, 32, 2379
7708, 1897, 2376, 1895, 2404
7709, 1078, 2079, 2148, 1633
7710, 2034, 20, 1920, 628
7711, 1016, 924, 1001, 2317
7712, 1345, 1380, 1749, 2052
7713, 1506, 758, 2061, 2014
7714, 1942, 1525, 1713, 1557
7715, 1628, 1350, 1500, 1844
7716, 1472, 36, 1660, 2375
7717, 1902, 2422, 2254, 2432
7718, 2288, 2327, 2309, 2338
7719, 2046, 1218, 1732, 2108
7720, 994, 1063, 955, 2306
7721, 1637, 688, 2065, 1634
7722, 35, 446, 1601, 1771
7723, 1873, 2032, 1384, 2059
7724, 1385, 120, 1500, 1844
7725, 1178, 1193, 1177, 1867
7726, 2251, 2005, 2181, 2365
7727, 1195, 1866, 1176, 1175
7728, 794, 2347, 796, 2395
7729, 2309, 2286, 2327, 2439
7730, 962, 920, 1036, 2323
7731, 107, 411, 1632, 2408
7732, 846, 2291, 842, 2377
7733, 843, 2292, 847, 2378
7734, 804, 975, 803, 2437
7735, 1965, 2365, 1858, 2367
7736, 1777, 1291, 2191, 1444
7737, 156, 2309, 157, 2405
7738, 921, 960, 1035, 2324
7739, 714, 34, 2303, 2375
7740, 1354, 1370, 1681, 2305
7741, 1356, 1679, 1369, 2304
7742, 1117, 2157, 572, 1635
7743, 2157, 1119, 572, 1635
7744, 231, 1703, 1460, 1458
7745, 2286, 2309, 2405, 2439
7746, 2386, 2422, 1902, 2432
7747, 1182, 408, 714, 1216
7748, 1834, 2072, 2142, 1781
7749, 2291, 2357, 2330, 2361
7750, 797, 403, 788, 2303
7751, 2073, 1997, 2256, 1335
7752, 1631, 1657, 2239, 1417
7753, 347, 759, 2060, 1505
7754, 991, 588, 2301, 2341
7755, 1170, 446, 447, 2307
7756, 2229, 1391, 1689, 1992
7757, 39, 231, 1703, 1653
7758, 814, 2346, 811, 2394
7759, 1119, 2157, 2078, 1635
7760, 1882, 1839, 1440, 1252
7761, 2271, 2114, 1893, 1242
7762, 306, 2364, 2400, 2411
7763, 1615, 2316, 1762, 2349
7764, 738, 1016, 1001, 2317
7765, 692, 2152, 2069, 1773
7766, 1800, 1811, 1829, 2322
7767, 2267, 1999, 2261, 2335
7768, 2161, 508, 1077, 1639
7769, 508, 2161, 1085, 1639
7770, 2190, 1987, 1986, 2396
7771, 189, 885, 878, 2402
7772, 1614, 1406, 1551, 2298
7773, 2205, 1906, 1701, 1326
7774, 880, 881, 914, 2357
7775, 677, 1470, 1507, 2086
7776, 2055, 1657, 1631, 1255
7777, 351, 1506, 758, 2061
7778, 1506, 351, 754, 2061
7779, 2214, 2053, 1431, 1794
7780, 985, 909, 984, 2313
7781, 2068, 702, 1774, 2151
7782, 1458, 231, 1703, 2359
7783, 1549, 2316, 1297, 2391
7784, 1363, 2392, 1376, 2401
7785, 685, 2174, 2160, 1200
7786, 1624, 2082, 2081, 1845
7787, 2031, 1295, 1496, 449
7788, 1293, 434, 2030, 1498
7789, 643, 225, 792, 2416
7790, 662, 663, 2296, 2380
7791, 1684, 433, 1499, 1191
7792, 1683, 1192, 1497, 448
7793, 1312, 2310, 157, 2439
7794, 1578, 1705, 1203, 2418
7795, 1540, 2069, 2234, 1475
7796, 2110, 1452, 1692, 2109
7797, 189, 190, 2313, 2402
7798, 2235, 1541, 1476, 2068
7799, 347, 2060, 760, 1505
7800, 631, 810, 216, 2412
7801, 1074, 2001, 2121, 1612
7802, 604, 2400, 2310, 2411
7803, 1003, 2328, 652, 2352
7804, 1704, 1581, 1204, 2422
7805, 1618, 2224, 2055, 1255
7806, 2073, 2143, 1940, 1533
7807, 628, 2034, 20, 1535
7808, 2403, 2422, 1582, 2435
7809, 1880, 1250, 1439, 1837
7810, 1012, 791, 796, 2395
7811, 575, 1692, 1121, 2110
7812, 1615, 1714, 1404, 2349
7813, 1627, 1989, 2111, 2228
7814, 1352, 1872, 2033, 1845
7815, 1304, 2168, 1881, 1357
7816, 1629, 1519, 1520, 2173
7817, 883, 882, 916, 2353
7818, 433, 432, 1539, 1191
7819, 448, 1192, 1538, 447
7820, 1632, 411, 715, 2408
7821, 1534, 2054, 1941, 1313
7822, 2083, 2084, 1628, 1844
7823, 1532, 1681, 121, 1354
7824, 1531, 1356, 126, 1679
7825, 1923, 2141, 2319, 2426
7826, 894, 944, 934, 2341
7827, 1278, 1273, 1970, 2212
7828, 2241, 1280, 1649, 1469
7829, 1618, 1315, 2224, 1515
7830, 2131, 1865, 2132, 2337
7831, 1551, 1296, 1614, 2298
7832, 1087, 20, 2034, 1536
7833, 2110, 1993, 2230, 2393
7834, 1350, 1844, 2032, 1873
7835, 1212, 1152, 1131, 2399
7836, 2063, 1868, 2392, 2401
7837, 1517, 1518, 2172, 1630
7838, 808, 1011, 814, 2394
7839, 696, 2277, 772, 1778
7840, 2121, 2001, 687, 1612
7841, 1076, 2148, 1633, 491
7842, 1974, 1976, 1977, 1477
7843, 1633, 2148, 1078, 491
7844, 1577, 1150, 2374, 2418
7845, 1596, 1118, 2162, 571
7846, 2162, 1126, 1596, 571
7847, 667, 2293, 666, 2363
7848, 398, 2389, 783, 2408
7849, 413, 802, 801, 2306
7850, 1073, 2037, 18, 1566
7851, 647, 209, 224, 643
7852, 2156, 2224, 2055, 1618
7853, 1448, 704, 285, 705
7854, 668, 45, 2120, 1536
7855, 790, 793, 224, 2372
7856, 1350, 1385, 1500, 1844
7857, 1327, 1358, 1302, 2167
7858, 426, 811, 120, 2423
7859, 1888, 1183, 1209, 1184
7860, 190, 732, 2313, 2388
7861, 619, 607, 618, 2300
7862, 608, 620, 617, 2299
7863, 1339, 1412, 2007, 1437
7864, 2109, 1692, 2229, 1991
7865, 1904, 2012, 2023, 1379
7866, 1382, 2021, 1903, 2011
7867, 2195, 1339, 1517, 1245
7868, 1720, 2143, 1835, 1533
7869, 1058, 1008, 1038, 2343
7870, 2117, 1878, 2269, 1342
7871, 2053, 2214, 2114, 1794
7872, 1505, 2060, 346, 758
7873, 1519, 1244, 1336, 2196
7874, 623, 624, 2302, 2402
7875, 1007, 1057, 1039, 2342
7876, 283, 1201, 2398, 2423
7877, 1471, 1703, 39, 2379
7878, 817, 432, 728, 2406
7879, 1328, 2236, 2076, 1515
7880, 892, 1004, 866, 2358
7881, 1063, 812, 414, 2306
7882, 1476, 1294, 1541, 2235
7883, 1292, 1540, 2234, 1475
7884, 2281, 1262, 1755, 2031
7885, 1263, 2030, 2280, 1756
7886, 1874, 1930, 1929, 1514
7887, 36, 227, 1649, 1660
7888, 989, 1014, 848, 2294
7889, 990, 849, 1013, 2295
7890, 1377, 1739, 2051, 1344
7891, 1872, 1352, 1453, 1845
7892, 1221, 1223, 2369, 2376
7893, 2072, 1939, 2142, 1781
7894, 1734, 2023, 2012, 1379
7895, 2021, 1382, 1736, 2011
7896, 779, 1435, 1300, 1984
7897, 758, 1506, 1423, 2014
7898, 1383, 1560, 1622, 2108
7899, 1802, 1854, 1855, 2319
7900, 1772, 1958, 1959, 2104
7901, 916, 2292, 2353, 2378
7902, 1164, 1951, 1950, 1949
7903, 717, 2318, 222, 2441
7904, 1686, 1187, 287, 2379
7905, 1877, 429, 1255, 1254
7906, 1361, 1362, 2397, 2417
7907, 1534, 1707, 2054, 1313
7908, 2331, 2353, 2292, 2360
7909, 992, 2297, 737, 2350
7910, 914, 2357, 2291, 2377
7911, 684, 2093, 54, 1360
7912, 1232, 1231, 1230, 2365
7913, 1229, 1234, 1451, 2332
7914, 1632, 1341, 107, 2408
7915, 1671, 1394, 2128, 1943
7916, 938, 2366, 923, 2383
7917, 2000, 673, 1410, 1763
7918, 992, 737, 963, 2350
7919, 1600, 431, 40, 1798
7920, 1506, 757, 2015, 2061
7921, 2071, 2148, 686, 1546
7922, 1726, 295, 2375, 2442
7923, 2185, 2401, 2392, 2436
7924, 2147, 1754, 1313, 1415
7925, 1313, 2054, 112, 1256
7926, 2006, 1336, 1438, 1411
7927, 1453, 1775, 1560, 2200
7928, 1867, 1519, 1427, 2173
7929, 2281, 1309, 1262, 1946
7930, 1797, 1692, 1452, 2407
7931, 1942, 2146, 2053, 1348
7932, 1945, 2280, 1310, 1263
7933, 1517, 2172, 1866, 1428
7934, 34, 223, 2296, 2442
7935, 839, 851, 1241, 2315
7936, 850, 838, 1240, 2314
7937, 2063, 2392, 2185, 2401
7938, 1969, 1520, 1519, 2173
7939, 379, 377, 776, 2351
7940, 1582, 2386, 1580, 2422
7941, 1787, 2191, 1291, 1444
7942, 1560, 1218, 1622, 2108
7943, 1531, 126, 1356, 1729
7944, 121, 1728, 1532, 1354
7945, 1969, 1912, 1520, 2173
7946, 313, 2378, 2305, 2429
7947, 2304, 2377, 301, 2428
7948, 2309, 2327, 2286, 2338
7949, 446, 2286, 829, 2390
7950, 2278, 1507, 1718, 2086
7951, 1506, 351, 758, 345
7952, 1506, 351, 345, 754
7953, 1357, 1304, 2168, 1326
7954, 885, 984, 907, 2313
7955, 1518, 2172, 1968, 1517
7956, 2172, 1968, 1911, 1518
7957, 797, 798, 403, 2303
7958, 54, 2093, 680, 1360
7959, 2320, 2339, 2140, 2413
7960, 1597, 2101, 1085, 1739
7961, 728, 432, 433, 727
7962, 678, 1345, 1668, 2100
7963, 1691, 2420, 1376, 2421
7964, 604, 2298, 2400, 2411
7965, 991, 964, 588, 2341
7966, 1866, 1195, 1428, 1175
7967, 1193, 1427, 1177, 1867
7968, 130, 1679, 126, 2304
7969, 123, 121, 1681, 2305
7970, 2115, 1941, 2143, 1534
7971, 634, 217, 200, 631
7972, 1934, 2369, 1883, 2413
7973, 1785, 2403, 1582, 2435
7974, 1352, 1453, 1383, 1872
7975, 1036, 912, 961, 2323
7976, 2054, 2147, 1941, 1313
7977, 1146, 2374, 1150, 2430
7978, 1080, 1627, 494, 2112
7979, 1663, 844, 1757, 2291
7980, 1758, 845, 1664, 2292
7981, 933, 2297, 992, 2443
7982, 1433, 1434, 2249, 2396
7983, 959, 913, 1035, 2324
7984, 1718, 1470, 1118, 2086
7985, 107, 794, 411, 2408
7986, 871, 205, 2328, 2372
7987, 295, 1189, 1726, 2375
7988, 1359, 50, 674, 2094
7989, 2033, 1872, 1383, 2058
7990, 2157, 2070, 671, 1547
7991, 831, 842, 855, 2304
7992, 843, 832, 856, 2305
7993, 678, 50, 1359, 2094
7994, 2309, 2338, 2286, 2405
7995, 306, 2390, 2307, 2399
7996, 1387, 1743, 2252, 1957
7997, 1569, 2424, 2310, 2439
7998, 1654, 1473, 1299, 2403
7999, 673, 2000, 2120, 1763
8000, 1560, 1383, 1872, 2108
8001, 1874, 1930, 1514, 1283
8002, 1603, 2112, 1450, 2345
8003, 623, 2311, 2402, 2444
8004, 2004, 2250, 2182, 2409
8005, 1137, 1525, 2271, 1242
8006, 1212, 2307, 1152, 2399
8007, 416, 2344, 1511, 2398
8008, 74, 1584, 1131, 2364
8009, 346, 1423, 1505, 758
8010, 345, 1506, 1423, 758
8011, 758, 351, 2061, 2014
8012, 318, 317, 2308, 2444
8013, 1969, 1438, 1943, 2006
8014, 1481, 1480, 1483, 2300
8015, 2313, 2329, 2287, 2340
8016, 2309, 2373, 582, 2439
8017, 741, 738, 751, 2317
8018, 2337, 2374, 1864, 2419
8019, 2191, 2269, 1878, 1444
8020, 601, 587, 591, 2318
8021, 1510, 415, 1509, 2344
8022, 1393, 1672, 1944, 1437
8023, 1212, 1131, 2364, 2399
8024, 1508, 400, 1716, 2334
8025, 793, 795, 412, 2303
8026, 230, 884, 1056, 2338
8027, 1511, 1710, 707, 2344
8028, 1207, 1186, 1185, 1887
8029, 2107, 1219, 1561, 2045
8030, 606, 1316, 2223, 1366
8031, 1385, 1561, 2201, 1873
8032, 1829, 1864, 2337, 2374
8033, 2241, 36, 227, 1649
8034, 1810, 384, 778, 2322
8035, 1527, 1385, 120, 1500
8036, 842, 844, 1663, 2291
8037, 843, 1664, 845, 2292
8038, 1704, 1607, 1581, 2435
8039, 1948, 1345, 1749, 2052
8040, 1059, 906, 232, 2340
8041, 1839, 1440, 1252, 1209
8042, 1869, 2397, 2064, 2417
8043, 112, 2147, 1313, 1415
8044, 1858, 2170, 1856, 2332
8045, 714, 295, 34, 2375
8046, 1573, 2392, 2367, 2421
8047, 1139, 1575, 2339, 2351
8048, 731, 2316, 2302, 2444
8049, 1228, 2393, 2336, 2407
8050, 1848, 1847, 1803, 2320
8051, 1713, 2146, 1348, 1408
8052, 1465, 1462, 1464, 2348
8053, 1879, 1441, 1439, 1880
8054, 2333, 2376, 1897, 2438
8055, 2081, 1791, 1492, 411
8056, 1008, 978, 943, 2302
8057, 1487, 1485, 1486, 2299
8058, 346, 760, 2060, 1505
8059, 898, 978, 1008, 2302
8060, 1850, 1897, 2333, 2376
8061, 1998, 1922, 2339, 2413
8062, 1129, 1341, 1632, 2408
8063, 1758, 841, 845, 2295
8064, 1757, 844, 840, 2294
8065, 1376, 2392, 1688, 2421
8066, 722, 306, 305, 2400
8067, 1736, 1436, 2220, 2011
8068, 921, 1010, 960, 2390
8069, 2234, 2003, 2030, 1372
8070, 2012, 1434, 2221, 1734
8071, 2002, 2031, 1373, 2235
8072, 1521, 1274, 176, 612
8073, 1739, 1947, 2051, 1344
8074, 583, 2301, 588, 2341
8075, 1659, 2376, 1449, 2404
8076, 650, 652, 2328, 2352
8077, 817, 1034, 726, 819
8078, 220, 2398, 2344, 2437
8079, 347, 353, 2060, 759
8080, 353, 347, 2060, 760
8081, 1550, 1767, 1570, 2311
8082, 1470, 1118, 2086, 2162
8083, 1900, 2374, 2164, 2430
8084, 2285, 2329, 2313, 2340
8085, 1565, 682, 2085, 1639
8086, 1829, 2322, 1811, 2374
8087, 1508, 1716, 1576, 2334
8088, 1149, 2335, 1146, 2430
8089, 2024, 2051, 1377, 1379
8090, 1601, 2043, 35, 1469
8091, 1597, 680, 2101, 1344
8092, 1783, 2172, 2280, 1310
8093, 429, 1214, 1254, 1215
8094, 1582, 2403, 2386, 2422
8095, 2052, 1380, 1382, 2022
8096, 2173, 1309, 1784, 2281
8097, 1010, 921, 1042, 2390
8098, 1580, 2386, 1148, 2422
8099, 1781, 1525, 2142, 1137
8100, 1985, 2149, 388, 2393
8101, 993, 809, 812, 2371
8102, 1506, 344, 1425, 757
8103, 350, 2015, 757, 2061
8104, 347, 1424, 759, 1505
8105, 2073, 1835, 2143, 1533
8106, 1145, 2386, 2351, 2432
8107, 1208, 1207, 2106, 1887
8108, 1714, 1173, 1487, 2349
8109, 1454, 1455, 1457, 2388
8110, 2043, 2241, 35, 1469
8111, 1888, 1972, 1950, 1184
8112, 825, 827, 723, 1033
8113, 1218, 1164, 1950, 1184
8114, 54, 1804, 2093, 684
8115, 679, 1470, 677, 2086
8116, 1770, 2310, 1552, 2411
8117, 865, 871, 205, 2328
8118, 829, 1056, 1010, 2390
8119, 2093, 2051, 1947, 1377
8120, 827, 999, 830, 2428
8121, 819, 822, 998, 2429
8122, 1739, 1597, 2101, 1344
8123, 2219, 2215, 1977, 1477
8124, 1254, 115, 429, 1215
8125, 1781, 2142, 1834, 1137
8126, 2054, 1878, 112, 1256
8127, 629, 22, 2271, 1242
8128, 1660, 2348, 1695, 2375
8129, 1762, 186, 622, 2349
8130, 1939, 2072, 1996, 1337
8131, 1602, 1452, 2110, 2393
8132, 2196, 1519, 1193, 1867
8133, 725, 724, 448, 2399
8134, 1839, 1817, 1881, 1440
8135, 1618, 2055, 1631, 1255
8136, 287, 1187, 1181, 2379
8137, 1866, 2195, 1517, 1195
8138, 32, 711, 217, 2306
8139, 1849, 2369, 1851, 2376
8140, 589, 2318, 591, 2425
8141, 295, 1182, 1189, 2375
8142, 1887, 2106, 1208, 1971
8143, 1745, 764, 700, 699
8144, 741, 2317, 739, 2427
8145, 1685, 1764, 1929, 1514
8146, 937, 896, 869, 2371
8147, 2205, 2168, 1906, 1326
8148, 728, 2308, 317, 2406
8149, 2166, 2266, 1867, 1194
8150, 2058, 1872, 1383, 2108
8151, 2007, 2257, 2072, 1412
8152, 1463, 2327, 1733, 2424
8153, 1874, 1514, 1793, 1283
8154, 2073, 2256, 2006, 1411
8155, 1832, 749, 1142, 2169
8156, 1317, 1495, 1367, 1967
8157, 1875, 1314, 1282, 2013
8158, 2064, 2397, 2186, 2417
8159, 1013, 940, 930, 2295
8160, 414, 813, 801, 2306
8161, 866, 198, 869, 2358
8162, 1172, 2374, 2337, 2419
8163, 1757, 840, 1598, 2294
8164, 841, 1758, 1599, 2295
8165, 1868, 2420, 1892, 2421
8166, 2081, 1725, 1791, 410
8167, 429, 1657, 1255, 1214
8168, 2146, 115, 1348, 1408
8169, 2266, 446, 1178, 1601
8170, 431, 2265, 1176, 1600
8171, 2308, 2391, 318, 2444
8172, 1653, 2240, 1460, 1281
8173, 1014, 931, 941, 2294
8174, 2316, 2391, 2311, 2444
8175, 860, 832, 2378, 2429
8176, 859, 2377, 831, 2428
8177, 315, 1153, 1132, 727
8178, 1793, 2, 2253, 1283
8179, 189, 2313, 885, 2402
8180, 760, 2060, 352, 346
8181, 346, 2060, 352, 758
8182, 306, 2364, 2307, 2390
8183, 1569, 2364, 2310, 2424
8184, 869, 2358, 198, 2371
8185, 1810, 1825, 2322, 2335
8186, 1289, 303, 1296, 721
8187, 959, 2324, 905, 2405
8188, 2031, 2145, 1294, 2235
8189, 1963, 2168, 2205, 1326
8190, 2144, 2234, 2030, 1292
8191, 2310, 2400, 2364, 2411
8192, 583, 2301, 1347, 2440
8193, 1566, 627, 18, 1608
8194, 1576, 1709, 1396, 2334
8195, 2070, 1410, 1547, 1723
8196, 1389, 1690, 1388, 1990
8197, 1854, 1857, 1856, 2332
8198, 224, 714, 34, 2303
8199, 757, 1425, 1506, 2015
8200, 2249, 1434, 2210, 2221
8201, 2211, 2220, 1436, 2248
8202, 1207, 1439, 1250, 1837
8203, 1929, 1514, 1316, 606
8204, 607, 2342, 169, 2354
8205, 15, 2037, 1921, 627
8206, 2143, 2115, 1534, 1720
8207, 1390, 1391, 1364, 2436
8208, 791, 794, 796, 2395
8209, 761, 766, 698, 2268
8210, 741, 1027, 1016, 2317
8211, 1439, 1879, 1880, 1837
8212, 1121, 1692, 574, 2229
8213, 591, 1015, 1026, 2318
8214, 1866, 2265, 2165, 1196
8215, 1213, 2308, 1617, 2370
8216, 1450, 1627, 2111, 2112
8217, 2301, 2440, 2348, 2442
8218, 972, 1023, 873, 2326
8219, 1729, 126, 1356, 449
8220, 1728, 121, 434, 1354
8221, 1791, 1198, 2081, 410
8222, 725, 448, 447, 2399
8223, 942, 913, 720, 299
8224, 865, 1003, 894, 2328
8225, 1411, 1533, 2073, 1335
8226, 2004, 2182, 1966, 2409
8227, 1243, 2272, 17, 1720
8228, 2262, 2108, 1622, 1951
8229, 1481, 2314, 1484, 2356
8230, 1489, 2315, 1486, 2355
8231, 1636, 1638, 2066, 2178
8232, 969, 1032, 970, 2299
8233, 156, 582, 157, 2309
8234, 1436, 1435, 1123, 2211
8235, 2271, 767, 1137, 1242
8236, 2287, 2359, 2293, 2363
8237, 1746, 761, 766, 698
8238, 1829, 2337, 2322, 2374
8239, 808, 814, 811, 2394
8240, 1879, 1439, 1821, 1837
8241, 1082, 1433, 1434, 2210
8242, 1712, 117, 1528, 2201
8243, 1882, 1839, 1881, 1440
8244, 1139, 2339, 1575, 2414
8245, 2148, 2071, 1076, 1546
8246, 1897, 2404, 1955, 2438
8247, 1648, 1211, 839, 2326
8248, 306, 305, 2364, 2390
8249, 1577, 1150, 1146, 2374
8250, 936, 871, 897, 2372
8251, 2392, 2401, 1363, 2436
8252, 1074, 2001, 1612, 1409
8253, 848, 836, 989, 2294
8254, 849, 990, 837, 2295
8255, 696, 697, 771, 1778
8256, 1036, 317, 912, 2323
8257, 318, 2308, 1132, 2391
8258, 1878, 1256, 1342, 1257
8259, 908, 987, 2309, 2382
8260, 852, 838, 834, 2314
8261, 835, 839, 853, 2315
8262, 1668, 1749, 1126, 2100
8263, 1031, 965, 966, 2300
8264, 2070, 2157, 1117, 1547
8265, 1254, 1255, 1877, 1515
8266, 1440, 1881, 1882, 1442
8267, 765, 2272, 1835, 1720
8268, 1808, 2198, 2123, 2339
8269, 2094, 50, 674, 1805
8270, 1953, 1586, 1219, 2045
8271, 1345, 1749, 1668, 2100
8272, 1358, 1327, 1962, 2167
8273, 1801, 2325, 1809, 2351
8274, 1035, 913, 305, 2324
8275, 1948, 2094, 1380, 2052
8276, 1198, 1791, 2081, 411
8277, 1215, 115, 114, 1408
8278, 593, 2373, 2382, 2440
8279, 726, 817, 819, 728
8280, 2236, 2224, 2076, 1515
8281, 1186, 1887, 1971, 1953
8282, 27, 871, 981, 645
8283, 1004, 2358, 892, 2362
8284, 804, 1020, 975, 2437
8285, 1515, 1877, 1254, 1431
8286, 2168, 1963, 1357, 1326
8287, 625, 1769, 1311, 2311
8288, 2210, 1433, 2249, 2396
8289, 1770, 604, 2310, 2411
8290, 1480, 1481, 1275, 2356
8291, 682, 2101, 2161, 1597
8292, 924, 1016, 925, 2317
8293, 190, 732, 189, 2313
8294, 859, 956, 2377, 2428
8295, 860, 2378, 957, 2429
8296, 2271, 1834, 2142, 1137
8297, 1296, 2298, 1551, 2411
8298, 1848, 2320, 2140, 2413
8299, 758, 2060, 352, 2014
8300, 1121, 1692, 2229, 2109
8301, 1415, 112, 109, 1217
8302, 1612, 2001, 687, 1409
8303, 170, 607, 169, 2354
8304, 2204, 2113, 1327, 1962
8305, 909, 2313, 985, 2410
8306, 1401, 1598, 1747, 2433
8307, 1576, 1396, 1508, 2334
8308, 1285, 1233, 1232, 2365
8309, 1599, 1403, 1748, 2434
8310, 756, 83, 1367, 1967
8311, 601, 584, 587, 2441
8312, 797, 793, 412, 2303
8313, 728, 727, 318, 2308
8314, 1329, 1974, 1977, 1477
8315, 1527, 1730, 1500, 426
8316, 1514, 1929, 1874, 605
8317, 604, 1312, 1770, 2310
8318, 1847, 1849, 1850, 2333
8319, 1160, 2401, 1376, 2420
8320, 2101, 507, 1085, 1739
8321, 1645, 1743, 2056, 1257
8322, 1789, 1425, 757, 2270
8323, 1877, 429, 2055, 1255
8324, 1017, 967, 2312, 2415
8325, 1352, 1624, 1492, 1845
8326, 2163, 2386, 1902, 2432
8327, 1068, 2366, 951, 2395
8328, 2246, 768, 697, 695
8329, 1972, 1270, 1587, 1210
8330, 1463, 1462, 2327, 2439
8331, 305, 2324, 2321, 2400
8332, 1390, 1689, 1391, 1992
8333, 1208, 1251, 2105, 2106
8334, 1319, 1320, 1265, 2330
8335, 1831, 2133, 1863, 2325
8336, 1267, 1322, 1321, 2331
8337, 922, 2383, 923, 2431
8338, 1434, 496, 1082, 2221
8339, 577, 1436, 1123, 2220
8340, 1968, 2007, 1944, 1437
8341, 1486, 1485, 1274, 2355
8342, 2073, 1138, 1533, 1411
8343, 1988, 774, 1698, 2190
8344, 301, 880, 900, 2377
8345, 901, 882, 313, 2378
8346, 1117, 1089, 2070, 1547
8347, 1488, 1482, 1647, 2312
8348, 1679, 1678, 1369, 2304
8349, 1681, 1370, 1680, 2305
8350, 2115, 2143, 2272, 1720
8351, 827, 725, 825, 723
8352, 2170, 2332, 1858, 2365
8353, 1962, 1879, 1358, 2167
8354, 1510, 1509, 1511, 2344
8355, 1575, 379, 776, 1139
8356, 1858, 2365, 2332, 2367
8357, 1964, 1914, 1545, 2274
8358, 1561, 1528, 1385, 2201
8359, 2234, 2003, 1372, 1475
8360, 2002, 1373, 1476, 2235
8361, 1660, 1695, 1189, 2375
8362, 1462, 2373, 2327, 2439
8363, 417, 806, 804, 2398
8364, 980, 25, 632, 869
8365, 1877, 2053, 115, 1254
8366, 625, 623, 186, 2316
8367, 1959, 1432, 1772, 2104
8368, 923, 2383, 2318, 2431
8369, 2307, 2364, 1212, 2424
8370, 2159, 1700, 1905, 2175
8371, 1759, 1908, 2187, 2194
8372, 2223, 1929, 1316, 606
8373, 1202, 291, 2389, 2408
8374, 1997, 2073, 1940, 1335
8375, 737, 2297, 740, 2350
8376, 1071, 831, 130, 2304
8377, 832, 823, 123, 2305
8378, 764, 700, 699, 358
8379, 1762, 622, 1173, 2349
8380, 1763, 1087, 2120, 1536
8381, 1495, 1317, 1931, 1967
8382, 2085, 1077, 1565, 1639
8383, 2139, 1909, 2129, 1429
8384, 399, 1716, 400, 2334
8385, 698, 700, 761, 2268
8386, 2115, 1707, 1534, 1720
8387, 570, 1126, 1749, 2100
8388, 114, 1885, 1682, 1408
8389, 2253, 2219, 1283, 1141
8390, 1160, 669, 2401, 2420
8391, 1254, 2053, 115, 1348
8392, 866, 639, 198, 2358
8393, 2168, 1963, 1881, 1357
8394, 803, 804, 419, 975
8395, 1773, 692, 2152, 1665
8396, 1068, 1045, 1022, 2347
8397, 1604, 1430, 699, 1910
8398, 414, 812, 813, 2306
8399, 1458, 1457, 1455, 2359
8400, 1071, 130, 126, 2304
8401, 121, 123, 823, 2305
8402, 2305, 2378, 832, 2429
8403, 831, 2377, 2304, 2428
8404, 1453, 1560, 1383, 1872
8405, 1510, 416, 1511, 2398
8406, 1824, 2414, 2351, 2432
8407, 2042, 40, 1460, 1600
8408, 1877, 2236, 2053, 1431
8409, 226, 2347, 794, 2395
8410, 1198, 1791, 1725, 410
8411, 702, 1666, 1774, 2151
8412, 215, 811, 2346, 2394
8413, 1803, 93, 2320, 2345
8414, 1519, 1629, 1784, 2173
8415, 1449, 2404, 2376, 2438
8416, 1630, 2172, 1517, 1783
8417, 920, 317, 1036, 2323
8418, 1438, 1490, 2183, 2006
8419, 413, 799, 234, 2306
8420, 921, 1035, 305, 2324
8421, 1417, 1432, 1197, 2083
8422, 1984, 2132, 779, 780
8423, 1041, 2291, 846, 2377
8424, 1040, 847, 2292, 2378
8425, 2024, 1904, 2023, 1379
8426, 2021, 2022, 1382, 1903
8427, 1781, 1412, 2072, 1337
8428, 602, 604, 2298, 2400
8429, 1563, 684, 53, 1360
8430, 2094, 678, 50, 1948
8431, 54, 2093, 1947, 680
8432, 302, 2304, 2361, 2377
8433, 314, 2360, 2305, 2378
8434, 669, 1806, 2401, 2420
8435, 1929, 1514, 606, 605
8436, 638, 636, 202, 889
8437, 1862, 1843, 1831, 2386
8438, 2204, 1327, 1700, 1905
8439, 2212, 1278, 1590, 2187
8440, 2106, 1207, 1250, 1837
8441, 1139, 776, 1575, 2351
8442, 1846, 2333, 2096, 2345
8443, 385, 393, 1136, 2319
8444, 725, 723, 305, 2390
8445, 295, 34, 2375, 2442
8446, 1681, 1680, 856, 2305
8447, 1679, 855, 1678, 2304
8448, 2174, 1906, 2160, 1701
8449, 1440, 1839, 1513, 1209
8450, 2093, 2024, 2051, 1377
8451, 1087, 2120, 1088, 1763
8452, 170, 1761, 621, 2354
8453, 2260, 1875, 1282, 2013
8454, 1685, 1929, 1930, 1514
8455, 1655, 1300, 1474, 2337
8456, 1880, 2106, 1250, 1837
8457, 99, 1802, 2319, 2336
8458, 1702, 1981, 2125, 1501
8459, 1058, 620, 185, 2343
8460, 1267, 321, 730, 1266
8461, 1348, 1794, 2053, 1557
8462, 1945, 2172, 1630, 1310
8463, 1251, 1208, 1250, 2106
8464, 1534, 2143, 1720, 1533
8465, 2124, 1810, 778, 2426
8466, 841, 1599, 851, 2295
8467, 1598, 840, 850, 2294
8468, 1057, 169, 619, 2342
8469, 494, 1603, 1081, 2112
8470, 40, 2240, 2042, 1460
8471, 2173, 1629, 1309, 1946
8472, 2162, 679, 1668, 2100
8473, 1857, 1896, 1858, 2332
8474, 756, 1367, 1789, 1967
8475, 1854, 2095, 1857, 2336
8476, 2069, 694, 692, 1773
8477, 1872, 1453, 1560, 2200
8478, 106, 1340, 1493, 398
8479, 1212, 1131, 1584, 2364
8480, 2333, 2345, 1220, 2438
8481, 1914, 1545, 1441, 1880
8482, 1080, 493, 1627, 2228
8483, 855, 1679, 130, 2304
8484, 1681, 856, 123, 2305
8485, 25, 198, 866, 639
8486, 2199, 2335, 1810, 2426
8487, 1772, 1631, 2239, 2104
8488, 1835, 2272, 2143, 1720
8489, 1924, 1278, 1251, 1970
8490, 831, 2304, 1071, 2428
8491, 823, 2305, 832, 2429
8492, 2320, 2369, 1222, 2413
8493, 2260, 1282, 753, 2013
8494, 2214, 2053, 2236, 1431
8495, 1094, 1091, 548, 1505
8496, 2220, 1436, 2248, 2011
8497, 2249, 2012, 1434, 2221
8498, 1692, 1391, 1689, 2229
8499, 2154, 2186, 2404, 2417
8500, 1774, 703, 702, 2068
8501, 1894, 2272, 16, 626
8502, 1145, 2351, 1147, 2432
8503, 1710, 1511, 1395, 2344
8504, 1965, 2392, 2135, 2421
8505, 2332, 2365, 1231, 2367
8506, 773, 2190, 1986, 2396
8507, 2054, 2191, 1878, 1444
8508, 1733, 1463, 1466, 2327
8509, 1292, 2234, 1372, 1475
8510, 1373, 1294, 1476, 2235
8511, 1069, 949, 2368, 2394
8512, 1358, 1441, 1879, 1913
8513, 872, 894, 895, 2328
8514, 220, 2368, 31, 2398
8515, 1561, 1712, 2201, 2045
8516, 1868, 2401, 1806, 2420
8517, 779, 1983, 2189, 1984
8518, 1482, 1488, 1521, 2312
8519, 1880, 1879, 1441, 1913
8520, 726, 817, 728, 2406
8521, 1293, 2003, 434, 1728
8522, 2002, 1729, 1295, 449
8523, 1853, 1854, 1802, 2336
8524, 1809, 2325, 1831, 2386
8525, 1686, 1731, 1187, 2379
8526, 2294, 2291, 2384, 2433
8527, 1781, 2072, 1412, 1137
8528, 791, 2395, 1012, 2416
8529, 2292, 2295, 2385, 2434
8530, 2096, 1846, 1847, 2333
8531, 1981, 1702, 1548, 1501
8532, 1976, 1974, 1331, 1477
8533, 415, 1510, 416, 2344
8534, 1868, 2135, 2392, 2421
8535, 946, 2296, 1030, 2380
8536, 2012, 1904, 1863, 2403
8537, 1096, 1506, 1097, 2061
8538, 768, 697, 695, 363
8539, 2146, 114, 115, 1408
8540, 1214, 1255, 429, 1254
8541, 1226, 2376, 1659, 2404
8542, 2286, 2310, 2424, 2439
8543, 2219, 2088, 2253, 1283
8544, 2071, 1075, 1076, 1546
8545, 889, 1019, 638, 2368
8546, 2096, 2345, 2333, 2438
8547, 2218, 1409, 687, 2001
8548, 2155, 2252, 2056, 1743
8549, 39, 1871, 2240, 1653
8550, 2147, 112, 109, 1415
8551, 2021, 1736, 2220, 2011
8552, 2221, 2023, 2012, 1734
8553, 603, 602, 169, 2321
8554, 1207, 1512, 1439, 1837
8555, 36, 2241, 1870, 1649
8556, 1388, 2080, 2276, 1990
8557, 850, 834, 838, 2314
8558, 851, 839, 835, 2315
8559, 1086, 2085, 1077, 1565
8560, 1142, 1907, 1876, 1832
8561, 871, 205, 27, 865
8562, 1915, 1882, 1881, 1442
8563, 2052, 2094, 1380, 2022
8564, 1810, 1825, 1811, 2322
8565, 2202, 1273, 1374, 2212
8566, 881, 1006, 926, 2357
8567, 228, 788, 403, 2303
8568, 967, 977, 971, 2312
8569, 871, 27, 205, 645
8570, 1734, 1083, 2023, 1735
8571, 966, 968, 2314, 2415
8572, 883, 928, 1005, 2353
8573, 1313, 1707, 2054, 1444
8574, 198, 25, 866, 869
8575, 1931, 752, 83, 1967
8576, 2046, 1732, 2200, 2108
8577, 2060, 353, 2025, 759
8578, 1602, 1452, 1692, 2110
8579, 1958, 1772, 2239, 2104
8580, 1387, 2103, 1960, 1957
8581, 911, 1012, 796, 2395
8582, 2236, 1877, 1515, 1431
8583, 1208, 1272, 1586, 1971
8584, 924, 945, 1001, 2362
8585, 2205, 1963, 1326, 1523
8586, 1011, 2394, 808, 2412
8587, 1327, 2204, 1962, 2167
8588, 2098, 1744, 1371, 2048
8589, 1079, 1690, 493, 2228
8590, 1145, 1148, 2386, 2432
8591, 1358, 1441, 1439, 1879
8592, 2351, 2386, 2163, 2432
8593, 699, 700, 278, 358
8594, 103, 2336, 1228, 2393
8595, 1648, 1489, 1211, 2326
8596, 599, 600, 1833, 1141
8597, 1613, 1387, 2103, 1960
8598, 717, 718, 221, 2334
8599, 1120, 574, 1689, 2229
8600, 1480, 1275, 174, 609
8601, 1469, 35, 1771, 1466
8602, 1139, 2351, 2339, 2414
8603, 1761, 1614, 1715, 2354
8604, 1442, 1881, 1915, 1357
8605, 910, 814, 1011, 2394
8606, 49, 1359, 1345, 678
8607, 2046, 1587, 1218, 1950
8608, 697, 771, 2277, 696
8609, 1591, 1744, 1371, 2098
8610, 25, 198, 632, 869
8611, 301, 302, 722, 2361
8612, 1436, 577, 1124, 2220
8613, 1434, 496, 2221, 1083
8614, 2111, 1080, 1627, 2228
8615, 1059, 435, 1009, 818
8616, 33, 2366, 221, 2389
8617, 1509, 1395, 1511, 2344
8618, 1085, 2161, 2101, 1597
8619, 1901, 1843, 2386, 2422
8620, 1824, 2351, 2163, 2432
8621, 809, 813, 217, 429
8622, 2055, 429, 428, 1657
8623, 1439, 1302, 1358, 1879
8624, 1265, 1319, 2330, 2361
8625, 1321, 1267, 2331, 2360
8626, 2044, 1833, 600, 1141
8627, 1438, 1490, 2006, 1411
8628, 2145, 1262, 1946, 2031
8629, 1945, 2144, 2030, 1263
8630, 1500, 1197, 1792, 426
8631, 221, 222, 717, 2318
8632, 1594, 380, 2320, 2339
8633, 925, 2381, 2317, 2437
8634, 1693, 283, 1201, 2398
8635, 1410, 2070, 2217, 1723
8636, 1844, 1385, 120, 1873
8637, 1591, 1278, 1964, 2187
8638, 603, 602, 2321, 2400
8639, 1775, 1341, 106, 2200
8640, 2130, 1966, 2182, 2409
8641, 1640, 1789, 1367, 1967
8642, 35, 1601, 1469, 1771
8643, 1910, 1604, 1430, 2128
8644, 449, 1496, 2031, 448
8645, 434, 433, 2030, 1498
8646, 1767, 2311, 1550, 2391
8647, 1988, 773, 774, 2190
8648, 1763, 2120, 45, 1536
8649, 2219, 2215, 1477, 1141
8650, 1546, 2218, 687, 2071
8651, 1412, 1491, 2007, 1437
8652, 1010, 1042, 826, 2390
8653, 1627, 1450, 1603, 2112
8654, 2150, 2232, 1988, 2345
8655, 126, 130, 857, 1679
8656, 858, 123, 121, 1681
8657, 214, 648, 650, 2352
8658, 1340, 1341, 1129, 2408
8659, 34, 224, 2303, 2372
8660, 408, 1217, 1256, 1216
8661, 641, 2358, 639, 2362
8662, 1274, 177, 610, 1485
8663, 1436, 1300, 1435, 2248
8664, 317, 728, 318, 2308
8665, 1728, 434, 1293, 1498
8666, 1295, 1729, 1496, 449
8667, 1511, 416, 1510, 2344
8668, 1058, 868, 620, 2343
8669, 877, 958, 908, 2380
8670, 379, 776, 1139, 2351
8671, 1500, 120, 1527, 426
8672, 570, 1749, 1125, 2052
8673, 1140, 1146, 1149, 2335
8674, 1050, 968, 874, 2314
8675, 1433, 2210, 1698, 2396
8676, 1743, 2252, 2056, 1583
8677, 1876, 1290, 1142, 1875
8678, 426, 710, 215, 2423
8679, 1541, 1165, 279, 703
8680, 507, 2051, 1084, 1739
8681, 775, 2325, 1801, 2351
8682, 670, 236, 1179, 1556
8683, 707, 705, 220, 2344
8684, 408, 1257, 1583, 1216
8685, 1896, 1858, 2332, 2367
8686, 771, 2247, 2246, 697
8687, 101, 2322, 1800, 2337
8688, 1057, 619, 867, 2342
8689, 1576, 1694, 718, 2389
8690, 1923, 2319, 1855, 2387
8691, 2057, 1112, 1092, 553
8692, 593, 2373, 582, 2382
8693, 972, 1049, 875, 2315
8694, 1528, 1333, 117, 1712
8695, 1135, 2325, 2351, 2386
8696, 1736, 1124, 569, 2021
8697, 1393, 1944, 2184, 1437
8698, 1592, 2319, 393, 2426
8699, 2118, 1839, 1252, 1209
8700, 1867, 1193, 2196, 2166
8701, 1129, 1632, 715, 2408
8702, 2195, 1866, 2165, 1195
8703, 1371, 2194, 2098, 2048
8704, 53, 680, 1344, 1360
8705, 1965, 2135, 2282, 2421
8706, 2007, 2184, 1944, 1437
8707, 1545, 1914, 1924, 1880
8708, 2070, 673, 671, 1547
8709, 2095, 2336, 2230, 2407
8710, 2120, 2000, 1088, 1763
8711, 759, 354, 2025, 1788
8712, 1809, 1801, 1831, 2325
8713, 1134, 2322, 2337, 2374
8714, 426, 1197, 1792, 2083
8715, 1808, 1801, 1809, 2351
8716, 2072, 2206, 2007, 1412
8717, 705, 219, 220, 2317
8718, 1478, 1976, 1975, 1331
8719, 1540, 694, 268, 1166
8720, 2339, 2351, 2198, 2414
8721, 2124, 2199, 1810, 2426
8722, 1415, 1313, 112, 1217
8723, 314, 313, 731, 2360
8724, 1475, 1540, 2069, 1773
8725, 2077, 1374, 1524, 1961
8726, 1217, 112, 408, 1256
8727, 1839, 1882, 2118, 1252
8728, 1774, 1476, 1541, 2068
8729, 1455, 1260, 1456, 2329
8730, 1352, 1492, 1453, 1845
8731, 1407, 1615, 1549, 2316
8732, 2336, 2393, 2230, 2407
8733, 1390, 2178, 1992, 2275
8734, 1174, 621, 1761, 2354
8735, 787, 401, 1045, 2347
8736, 1668, 1126, 2162, 2100
8737, 1659, 1389, 2404, 2438
8738, 1851, 2376, 2369, 2409
8739, 633, 196, 630, 2412
8740, 642, 207, 644, 2416
8741, 575, 1122, 1602, 2110
8742, 1835, 2073, 1138, 1533
8743, 779, 1985, 780, 2393
8744, 1562, 1359, 49, 674
8745, 1924, 1251, 1250, 2106
8746, 1712, 1586, 1333, 2045
8747, 1267, 730, 1609, 2331
8748, 2302, 2323, 317, 2444
8749, 1435, 1699, 1123, 2211
8750, 1640, 1112, 1092, 2057
8751, 429, 1877, 115, 1254
8752, 2129, 1909, 1944, 1393
8753, 1924, 1250, 1545, 1880
8754, 1112, 527, 1640, 1092
8755, 360, 1394, 1490, 2183
8756, 1257, 1743, 2056, 1583
8757, 2278, 1718, 2284, 2086
8758, 1440, 1304, 1881, 1357
8759, 2196, 1244, 1997, 2166
8760, 2211, 1435, 1699, 1984
8761, 1209, 2118, 1888, 1210
8762, 1099, 519, 2010, 1098
8763, 35, 446, 2266, 1601
8764, 1662, 1415, 109, 1649
8765, 1972, 1888, 2118, 1210
8766, 2195, 2165, 1996, 1245
8767, 853, 854, 833, 2326
8768, 1509, 82, 744, 415
8769, 1130, 1201, 283, 2423
8770, 2037, 15, 18, 627
8771, 1961, 1740, 1907, 1908
8772, 2194, 1591, 1371, 2098
8773, 2120, 45, 673, 1763
8774, 767, 2271, 22, 1242
8775, 1964, 1278, 1924, 1970
8776, 1999, 1923, 2387, 2426
8777, 2147, 109, 1886, 1415
8778, 20, 21, 628, 1536
8779, 591, 2318, 1026, 2425
8780, 755, 10, 2223, 1366
8781, 1044, 1020, 806, 2346
8782, 2092, 1954, 2091, 2430
8783, 989, 836, 1041, 2291
8784, 1040, 837, 990, 2292
8785, 2265, 431, 40, 1600
8786, 58, 2121, 687, 1612
8787, 828, 126, 449, 2304
8788, 820, 434, 121, 2305
8789, 761, 1746, 700, 698
8790, 1842, 2164, 1900, 2374
8791, 2030, 2003, 434, 1293
8792, 1295, 2031, 2002, 449
8793, 1148, 1580, 1145, 2386
8794, 1250, 1439, 1441, 1880
8795, 1177, 1867, 447, 446
8796, 432, 431, 1866, 1175
8797, 1759, 1318, 1908, 1876
8798, 1027, 2317, 741, 2427
8799, 2167, 1327, 2204, 1905
8800, 1631, 1772, 1417, 2104
8801, 1760, 1333, 117, 1553
8802, 686, 687, 2071, 1546
8803, 1014, 834, 848, 2294
8804, 935, 1060, 997, 2382
8805, 849, 835, 1013, 2295
8806, 1432, 1417, 2104, 2083
8807, 1260, 2329, 1455, 2388
8808, 1142, 1876, 1875, 1832
8809, 915, 2357, 926, 2384
8810, 2278, 677, 1507, 2086
8811, 1994, 2345, 2096, 2438
8812, 1712, 1528, 1561, 2201
8813, 2266, 2043, 35, 1601
8814, 2286, 2400, 2310, 2405
8815, 1082, 1698, 1433, 2210
8816, 650, 2328, 223, 2352
8817, 1509, 744, 82, 325
8818, 1807, 2064, 1869, 2397
8819, 1491, 2007, 2206, 1412
8820, 1497, 2027, 2281, 448
8821, 433, 2026, 2280, 1499
8822, 1415, 109, 1886, 1662
8823, 1885, 114, 2146, 1408
8824, 1273, 1278, 1590, 2212
8825, 1389, 1627, 1690, 2228
8826, 1800, 1829, 2131, 2337
8827, 1542, 1484, 1481, 2314
8828, 2242, 1524, 1277, 2016
8829, 1290, 1759, 2194, 1876
8830, 752, 1661, 1317, 1931
8831, 1543, 1486, 1489, 2315
8832, 1250, 1441, 1545, 1880
8833, 1500, 426, 2083, 1844
8834, 1834, 2271, 767, 1137
8835, 2184, 1393, 1491, 365
8836, 226, 715, 411, 2408
8837, 554, 1112, 1107, 1995
8838, 426, 1500, 120, 1844
8839, 691, 2121, 58, 1612
8840, 1868, 1891, 1892, 2420
8841, 2211, 1436, 1435, 2248
8842, 1514, 1764, 1929, 1316
8843, 2125, 2067, 1981, 1702
8844, 1640, 2057, 2158, 1967
8845, 682, 680, 2101, 1597
8846, 1493, 1419, 1786, 1827
8847, 2210, 1433, 1434, 2249
8848, 1490, 2207, 2006, 1411
8849, 602, 604, 170, 2298
8850, 1925, 1973, 1253, 1279
8851, 1212, 2364, 2307, 2399
8852, 1660, 1649, 36, 1472
8853, 695, 697, 271, 363
8854, 1133, 2320, 94, 2345
8855, 1834, 2072, 1781, 1137
8856, 676, 244, 1199, 675
8857, 1717, 416, 1510, 2398
8858, 40, 2042, 2265, 1600
8859, 1970, 1273, 1251, 2105
8860, 2066, 2078, 672, 1636
8861, 1875, 1919, 1314, 2013
8862, 104, 1300, 1655, 2337
8863, 2286, 2424, 2327, 2439
8864, 1587, 1972, 1210, 1184
8865, 1418, 1977, 2215, 1477
8866, 1775, 1453, 107, 2200
8867, 1808, 1824, 2198, 2351
8868, 1901, 2028, 2422, 2435
8869, 1907, 1318, 1142, 1876
8870, 971, 1017, 967, 2312
8871, 1491, 2184, 2007, 1437
8872, 2239, 2055, 428, 1657
8873, 1729, 1722, 1531, 2002
8874, 2003, 1728, 1721, 1532
8875, 1706, 1213, 1617, 2370
8876, 828, 827, 830, 2428
8877, 819, 820, 822, 2429
8878, 1515, 1328, 2236, 1431
8879, 1408, 1682, 114, 1653
8880, 1740, 1318, 1907, 1908
8881, 1094, 1091, 1505, 522
8882, 1097, 525, 1506, 1096
8883, 1097, 1096, 2061, 551
8884, 428, 2239, 1657, 1417
8885, 1272, 1208, 2105, 1971
8886, 1898, 1857, 2095, 2407
8887, 2003, 1728, 1372, 1721
8888, 1998, 2339, 2198, 2414
8889, 1373, 1722, 1729, 2002
8890, 615, 1480, 174, 609
8891, 1763, 1410, 2000, 1723
8892, 761, 1746, 1745, 700
8893, 1964, 1591, 2187, 2098
8894, 921, 2324, 305, 2390
8895, 702, 65, 1666, 862
8896, 1024, 993, 980, 2371
8897, 692, 61, 861, 1665
8898, 1453, 107, 1341, 1775
8899, 1394, 360, 763, 2183
8900, 1463, 2424, 1569, 2439
8901, 1412, 2072, 2206, 1137
8902, 1047, 1034, 437, 819
8903, 827, 1048, 1033, 444
8904, 1953, 1971, 1586, 2045
8905, 2144, 693, 694, 2446
8906, 1069, 1020, 1044, 2346
8907, 928, 2353, 917, 2385
8908, 1610, 721, 1265, 2330
8909, 2187, 1591, 1759, 2194
8910, 1025, 981, 995, 2372
8911, 606, 2223, 10, 1366
8912, 1803, 1846, 93, 2345
8913, 1297, 322, 1288, 730
8914, 1717, 1510, 1511, 2398
8915, 1899, 2418, 2029, 2419
8916, 2073, 2006, 2207, 1411
8917, 1908, 1590, 1759, 2187
8918, 644, 1012, 2395, 2416
8919, 1964, 1545, 1719, 2274
8920, 1449, 1659, 1226, 2376
8921, 1833, 2044, 2215, 1141
8922, 1252, 1882, 1925, 1571
8923, 1794, 2053, 1431, 1348
8924, 1442, 1440, 1881, 1357
8925, 1775, 107, 1341, 2200
8926, 314, 1266, 1651, 2360
8927, 1650, 1264, 302, 2361
8928, 1091, 1423, 523, 1095
8929, 2014, 1096, 1095, 550
8930, 1095, 1423, 524, 1096
8931, 1393, 2184, 769, 365
8932, 765, 17, 2272, 1720
8933, 2194, 1759, 1908, 1876
8934, 2153, 2185, 2063, 2392
8935, 1549, 1615, 1297, 2316
8936, 2200, 1416, 1732, 2046
8937, 778, 2319, 2141, 2426
8938, 701, 2145, 703, 2445
8939, 1020, 419, 804, 975
8940, 1729, 1531, 126, 2002
8941, 1728, 2003, 121, 1532
8942, 1573, 1231, 2365, 2367
8943, 1186, 1208, 1586, 1971
8944, 1348, 115, 1215, 1408
8945, 1389, 1362, 1659, 2404
8946, 1011, 633, 2394, 2412
8947, 1910, 1430, 699, 2138
8948, 302, 301, 2304, 2377
8949, 313, 314, 2305, 2378
8950, 1272, 1273, 1332, 2202
8951, 881, 720, 1006, 2357
8952, 1252, 1440, 1882, 1442
8953, 1851, 2369, 2171, 2409
8954, 925, 2317, 1027, 2437
8955, 1445, 1744, 1206, 2048
8956, 943, 320, 729, 912
8957, 1850, 1849, 1851, 2376
8958, 2037, 18, 15, 1073
8959, 1922, 2140, 2339, 2413
8960, 2217, 2000, 1410, 1723
8961, 616, 610, 177, 1485
8962, 446, 35, 829, 2338
8963, 1160, 1556, 669, 2420
8964, 1276, 164, 598, 400
8965, 1583, 1743, 2252, 1387
8966, 2288, 2301, 2382, 2440
8967, 1605, 1909, 2129, 1393
8968, 1207, 2106, 1887, 1837
8969, 2296, 2375, 34, 2442
8970, 1613, 1725, 2081, 2103
8971, 2107, 1561, 2201, 2045
8972, 1095, 549, 1091, 2014
8973, 1542, 1240, 1484, 2314
8974, 883, 1005, 729, 2353
8975, 1637, 688, 56, 2397
8976, 2153, 2185, 2392, 2436
8977, 1543, 1489, 1241, 2315
8978, 1279, 1926, 1974, 1331
8979, 1472, 1660, 1189, 2375
8980, 1659, 2404, 1449, 2438
8981, 972, 873, 1017, 2326
8982, 1972, 2102, 1270, 1210
8983, 1567, 1405, 1320, 2330
8984, 2215, 2044, 1418, 1504
8985, 1404, 1568, 1322, 2331
8986, 1340, 106, 1341, 2408
8987, 221, 222, 2318, 2383
8988, 624, 185, 623, 2302
8989, 2163, 2351, 1809, 2386
8990, 682, 2085, 681, 1565
8991, 624, 189, 878, 2402
8992, 925, 889, 2381, 2437
8993, 1688, 2392, 1573, 2421
8994, 775, 1801, 1808, 2351
8995, 2172, 2026, 1866, 1428
8996, 1427, 1867, 2173, 2027
8997, 1904, 2177, 1862, 2403
8998, 1492, 2081, 411, 1845
8999, 32, 2306, 217, 2371
9000, 1187, 1731, 1703, 2379
9001, 1926, 1975, 1974, 1331
9002, 2230, 2095, 1853, 2336
9003, 553, 1092, 2057, 2158
9004, 2010, 1494, 519, 1099
9005, 1219, 2107, 1953, 2045
9006, 1438, 1490, 1394, 2183
9007, 613, 181, 890, 977
9008, 1342, 1256, 1878, 1444
9009, 401, 786, 106, 2347
9010, 2218, 1546, 687, 1724
9011, 1385, 1528, 120, 2201
9012, 1637, 56, 1227, 2397
9013, 1809, 2351, 2325, 2386
9014, 1507, 1750, 2017, 2278
9015, 1914, 1441, 1537, 1913
9016, 755, 2223, 1982, 1366
9017, 842, 846, 844, 2291
9018, 1850, 1895, 1897, 2376
9019, 843, 845, 847, 2292
9020, 1950, 2046, 1587, 1972
9021, 1638, 1235, 44, 2401
9022, 1831, 2325, 1863, 2403
9023, 900, 2377, 956, 2428
9024, 901, 957, 2378, 2429
9025, 1900, 2091, 2255, 2430
9026, 1223, 2376, 1226, 2409
9027, 1576, 718, 2334, 2389
9028, 1791, 1198, 1492, 411
9029, 1141, 2215, 1418, 1504
9030, 1026, 2318, 923, 2425
9031, 775, 1808, 1801, 375
9032, 1094, 548, 2060, 1505
9033, 40, 1460, 1600, 1798
9034, 1835, 1138, 1720, 1533
9035, 1409, 2218, 687, 1724
9036, 2223, 1316, 1494, 1366
9037, 679, 678, 1668, 2100
9038, 1649, 1415, 109, 1472
9039, 986, 904, 905, 2405
9040, 1157, 1150, 1161, 2430
9041, 2141, 1802, 1855, 2319
9042, 2196, 1969, 1519, 2173
9043, 1463, 1261, 1462, 2439
9044, 1605, 2129, 1909, 1429
9045, 40, 1460, 1798, 1459
9046, 2175, 1700, 2204, 2019
9047, 1974, 1329, 1331, 1477
9048, 1788, 2025, 759, 1424
9049, 2172, 2195, 1968, 1517
9050, 2010, 519, 1392, 1098
9051, 1261, 2373, 1462, 2439
9052, 766, 275, 1746, 698
9053, 1831, 2386, 2325, 2403
9054, 1091, 1423, 1095, 2014
9055, 1096, 1095, 1423, 2014
9056, 1420, 1782, 1419, 399
9057, 1187, 1471, 1181, 2379
9058, 2015, 1097, 1506, 2061
9059, 1881, 1963, 1915, 1357
9060, 1092, 1640, 2057, 2158
9061, 914, 2291, 1041, 2377
9062, 1040, 2292, 916, 2378
9063, 602, 2310, 604, 2400
9064, 1579, 1381, 1578, 2419
9065, 899, 1007, 979, 2321
9066, 1189, 1726, 2375, 2442
9067, 1451, 1228, 1229, 2336
9068, 107, 1341, 106, 2408
9069, 1453, 1492, 107, 1845
9070, 1927, 1891, 1861, 2420
9071, 781, 783, 398, 2389
9072, 734, 738, 736, 2350
9073, 625, 1311, 190, 2311
9074, 1545, 1278, 1924, 1964
9075, 433, 432, 2026, 1539
9076, 1538, 2027, 448, 447
9077, 584, 162, 1396, 589
9078, 1621, 2404, 1362, 2417
9079, 291, 1202, 1129, 2408
9080, 1603, 494, 1627, 2112
9081, 1491, 770, 2184, 365
9082, 1575, 380, 1594, 2339
9083, 19, 22, 2271, 629
9084, 2253, 2, 599, 1283
9085, 1638, 1636, 1390, 2178
9086, 2063, 1806, 1868, 2401
9087, 1210, 2118, 2102, 1253
9088, 588, 2301, 583, 2440
9089, 1721, 1372, 2003, 1475
9090, 1373, 1476, 1722, 2002
9091, 977, 182, 891, 614
9092, 2368, 2381, 889, 2437
9093, 2044, 2215, 1141, 1504
9094, 1864, 1865, 1829, 2337
9095, 604, 157, 1312, 2310
9096, 1474, 1172, 1655, 2337
9097, 1592, 393, 1574, 2426
9098, 1638, 44, 672, 2401
9099, 803, 2427, 2344, 2437
9100, 2201, 1712, 117, 2045
9101, 2105, 1251, 1924, 2106
9102, 1200, 685, 256, 1236
9103, 2190, 2210, 1987, 2396
9104, 721, 1289, 306, 2411
9105, 779, 101, 2132, 2337
9106, 157, 602, 156, 2405
9107, 1138, 2073, 2207, 1411
9108, 1189, 1182, 1472, 2375
9109, 1961, 2202, 1374, 2212
9110, 2108, 2046, 1218, 1950
9111, 1700, 1529, 2204, 2019
9112, 1272, 1273, 2202, 2105
9113, 986, 2309, 904, 2405
9114, 1231, 1234, 2332, 2367
9115, 638, 889, 2368, 2381
9116, 1074, 2218, 2001, 1409
9117, 1277, 2243, 2242, 2016
9118, 1228, 103, 1136, 2336
9119, 1199, 1238, 243, 676
9120, 771, 772, 2277, 1778
9121, 989, 1041, 914, 2291
9122, 1040, 990, 916, 2292
9123, 236, 670, 669, 1556
9124, 1252, 1925, 2118, 1253
9125, 811, 430, 815, 2346
9126, 786, 402, 794, 2347
9127, 1020, 2368, 939, 2437
9128, 2069, 2208, 1773, 454
9129, 2068, 471, 1774, 2209
9130, 1545, 1278, 1251, 1924
9131, 1874, 1, 2253, 605
9132, 1283, 599, 2253, 1141
9133, 2219, 2253, 1833, 1141
9134, 1215, 1254, 115, 1348
9135, 757, 343, 1789, 2270
9136, 608, 622, 186, 2349
9137, 1848, 1803, 2140, 2320
9138, 1112, 528, 1107, 1995
9139, 1091, 2060, 548, 1505
9140, 1764, 2010, 1929, 1316
9141, 779, 1699, 1435, 1984
9142, 730, 1266, 314, 2360
9143, 1995, 554, 1112, 2057
9144, 1396, 163, 594, 589
9145, 1449, 2376, 2333, 2438
9146, 1471, 39, 1703, 1653
9147, 531, 1109, 1502, 2116
9148, 1827, 106, 1493, 398
9149, 1045, 783, 1022, 2347
9150, 791, 226, 794, 2395
9151, 1238, 243, 676, 674
9152, 1646, 1234, 1620, 2367
9153, 1141, 600, 2044, 1504
9154, 556, 1114, 1790, 2047
9155, 1441, 1914, 1880, 1913
9156, 1468, 1330, 1782, 2050
9157, 1692, 575, 1602, 2110
9158, 1308, 1691, 1307, 2421
9159, 397, 1064, 976, 2425
9160, 323, 1142, 749, 2169
9161, 2236, 1877, 2224, 1515
9162, 1590, 1374, 1273, 2212
9163, 1930, 1685, 1514, 1283
9164, 1007, 942, 979, 2321
9165, 1731, 2359, 1703, 2379
9166, 816, 1044, 807, 2346
9167, 1574, 777, 2322, 2335
9168, 721, 304, 1265, 1264
9169, 1692, 1689, 574, 2229
9170, 2152, 474, 2069, 1773
9171, 1840, 701, 63, 1910
9172, 685, 684, 256, 1236
9173, 215, 808, 811, 2394
9174, 1590, 1961, 2212, 1908
9175, 302, 721, 722, 2361
9176, 1867, 2196, 1519, 2173
9177, 887, 653, 1021, 2366
9178, 2103, 2081, 1613, 1960
9179, 451, 2068, 1774, 2151
9180, 1751, 1569, 1312, 2310
9181, 59, 1841, 1909, 693
9182, 756, 1789, 343, 2270
9183, 1311, 14, 190, 1752
9184, 1866, 2195, 2172, 1517
9185, 1970, 1964, 1278, 2187
9186, 2272, 17, 16, 626
9187, 1385, 120, 1528, 1527
9188, 826, 1042, 825, 2390
9189, 2069, 2208, 1475, 1773
9190, 2068, 1774, 1476, 2209
9191, 327, 1395, 739, 734
9192, 494, 503, 2112, 1081
9193, 503, 494, 2112, 1080
9194, 2307, 2364, 306, 2399
9195, 1374, 1590, 1961, 2212
9196, 1899, 2374, 1842, 2418
9197, 1883, 1849, 1848, 2369
9198, 1446, 1907, 1832, 2169
9199, 1962, 1358, 1879, 1913
9200, 417, 2398, 1201, 2423
9201, 1810, 1811, 1800, 2322
9202, 1560, 1872, 2200, 2108
9203, 730, 314, 731, 2360
9204, 2201, 120, 1385, 1873
9205, 360, 1490, 762, 2183
9206, 825, 827, 1033, 444
9207, 437, 1034, 817, 819
9208, 1251, 1924, 1970, 2105
9209, 583, 588, 590, 2341
9210, 1119, 563, 2157, 572
9211, 1117, 2157, 563, 572
9212, 1387, 2252, 1583, 2103
9213, 379, 1139, 1135, 2351
9214, 1210, 1252, 2118, 1253
9215, 1790, 1109, 1114, 556
9216, 1, 2, 2253, 605
9217, 840, 844, 836, 2294
9218, 837, 845, 841, 2295
9219, 2106, 2105, 1208, 1971
9220, 302, 2361, 301, 2377
9221, 313, 2360, 314, 2378
9222, 1572, 1226, 2376, 2409
9223, 599, 166, 600, 1141
9224, 1873, 1561, 2201, 2107
9225, 421, 117, 815, 2346
9226, 2199, 1999, 2335, 2426
9227, 1775, 106, 1416, 2200
9228, 219, 704, 218, 2350
9229, 923, 1015, 922, 2431
9230, 386, 1134, 394, 2322
9231, 2089, 1902, 2254, 2432
9232, 1381, 1579, 1796, 2419
9233, 1146, 2322, 1134, 2374
9234, 318, 2316, 731, 2444
9235, 594, 1508, 163, 1396
9236, 227, 35, 2241, 1469
9237, 1587, 1218, 1732, 2046
9238, 120, 117, 1753, 2423
9239, 571, 580, 1596, 1118
9240, 580, 571, 1596, 1126
9241, 866, 869, 870, 2358
9242, 1144, 1981, 1548, 1501
9243, 2079, 2065, 688, 1634
9244, 405, 1025, 790, 792
9245, 2148, 500, 1078, 491
9246, 500, 2148, 1076, 491
9247, 1217, 1313, 112, 1256
9248, 1177, 1867, 2027, 447
9249, 432, 1866, 2026, 1175
9250, 696, 771, 2277, 1778
9251, 2351, 2414, 1147, 2432
9252, 1109, 1790, 1206, 556
9253, 498, 507, 1739, 1085
9254, 498, 507, 1084, 1739
9255, 1882, 1252, 1442, 1571
9256, 925, 1016, 1027, 2317
9257, 289, 708, 1657, 1417
9258, 1317, 1495, 1931, 2238
9259, 2154, 2064, 2186, 2417
9260, 411, 107, 1492, 1845
9261, 1396, 1447, 162, 584
9262, 2198, 2351, 1824, 2414
9263, 1745, 764, 761, 700
9264, 2051, 2101, 1947, 1739
9265, 1575, 2339, 1595, 2414
9266, 21, 20, 1087, 1536
9267, 1298, 670, 235, 1179
9268, 1695, 2375, 2348, 2442
9269, 575, 1122, 2110, 566
9270, 2110, 1121, 575, 566
9271, 1853, 2230, 2336, 2393
9272, 508, 1077, 1639, 499
9273, 1639, 1085, 508, 499
9274, 2211, 1123, 2220, 568
9275, 505, 2210, 1082, 2221
9276, 1311, 1570, 1752, 2311
9277, 744, 1395, 326, 1509
9278, 1593, 2387, 1592, 2426
9279, 1071, 2304, 126, 2428
9280, 823, 121, 2305, 2429
9281, 2048, 1744, 1206, 1823
9282, 1636, 1119, 2078, 1635
9283, 380, 378, 1133, 2320
9284, 205, 660, 650, 2328
9285, 1531, 126, 857, 1679
9286, 1681, 121, 858, 1532
9287, 1702, 2067, 1981, 1548
9288, 923, 2318, 1015, 2431
9289, 1915, 1916, 1442, 1548
9290, 1493, 1340, 1419, 398
9291, 1569, 1552, 1312, 2310
9292, 570, 579, 1749, 1126
9293, 579, 570, 1749, 1125
9294, 1158, 1149, 1157, 2430
9295, 2250, 2004, 2171, 2409
9296, 427, 1417, 1197, 2083
9297, 2202, 1332, 1272, 1826
9298, 2226, 1270, 1587, 1972
9299, 1371, 1314, 1919, 2048
9300, 1024, 424, 809, 810
9301, 1553, 117, 1760, 417
9302, 1160, 1363, 1376, 2401
9303, 2309, 2327, 2288, 2373
9304, 1872, 1453, 107, 1845
9305, 770, 769, 2184, 365
9306, 1290, 1759, 1371, 2194
9307, 99, 1853, 1802, 2336
9308, 1925, 2102, 2118, 1253
9309, 1380, 1382, 1737, 2052
9310, 623, 2311, 190, 2402
9311, 1318, 1759, 1290, 1876
9312, 703, 1165, 279, 701
9313, 519, 1494, 2010, 1392
9314, 1257, 408, 1256, 1216
9315, 2079, 1078, 1634, 1633
9316, 818, 821, 431, 2406
9317, 1314, 1371, 1445, 2048
9318, 2202, 1970, 1273, 2212
9319, 1265, 1264, 1319, 2361
9320, 1321, 1266, 1267, 2360
9321, 1262, 2281, 1946, 2031
9322, 2280, 1945, 2030, 1263
9323, 2150, 1988, 773, 2345
9324, 915, 926, 927, 2384
9325, 2000, 2070, 2217, 673
9326, 687, 1546, 1409, 1724
9327, 1582, 1171, 1580, 2386
9328, 1923, 2319, 2387, 2426
9329, 218, 2350, 2297, 2443
9330, 2071, 2001, 2218, 687
9331, 832, 843, 847, 2378
9332, 846, 842, 831, 2377
9333, 1862, 2386, 1831, 2403
9334, 2270, 756, 1789, 1967
9335, 1797, 1451, 1646, 2407
9336, 1189, 1695, 1726, 2442
9337, 831, 1071, 488, 2428
9338, 823, 832, 440, 2429
9339, 1984, 2211, 1435, 2248
9340, 707, 1511, 2344, 2398
9341, 1963, 2205, 2119, 1523
9342, 1932, 1468, 1782, 2050
9343, 1004, 636, 639, 2362
9344, 1620, 1646, 2367, 2436
9345, 399, 1782, 1419, 2050
9346, 694, 693, 268, 1166
9347, 1955, 1897, 1895, 2404
9348, 1225, 1572, 1305, 2409
9349, 1187, 1703, 1471, 2379
9350, 319, 729, 882, 883
9351, 2061, 1096, 1506, 2014
9352, 333, 738, 741, 1016
9353, 1985, 388, 780, 2393
9354, 708, 428, 1657, 1417
9355, 1604, 63, 701, 1910
9356, 1694, 1202, 291, 2389
9357, 966, 968, 1050, 2314
9358, 1094, 2060, 2025, 1505
9359, 636, 889, 638, 2381
9360, 884, 986, 974, 2338
9361, 1930, 1874, 2088, 1283
9362, 768, 771, 2246, 697
9363, 1583, 1725, 1387, 2103
9364, 639, 1004, 201, 636
9365, 1416, 106, 1493, 1827
9366, 1395, 327, 1448, 734
9367, 1103, 1101, 1523, 514
9368, 164, 1276, 1508, 400
9369, 1945, 2172, 1911, 1630
9370, 744, 326, 1395, 739
9371, 1524, 1740, 2016, 1961
9372, 591, 587, 154, 1015
9373, 569, 1125, 1737, 2021
9374, 608, 617, 616, 2299
9375, 1860, 2136, 265, 689
9376, 615, 618, 607, 2300
9377, 1274, 610, 176, 612
9378, 301, 722, 720, 2357
9379, 2173, 1912, 1629, 1946
9380, 2197, 2215, 2044, 1418
9381, 1712, 1333, 117, 2045
9382, 1228, 1452, 2393, 2407
9383, 295, 719, 34, 2442
9384, 970, 1049, 972, 2315
9385, 693, 1909, 59, 1605
9386, 1811, 2164, 1842, 2374
9387, 325, 82, 1509, 415
9388, 2242, 2077, 1524, 1961
9389, 1097, 1506, 1425, 2015
9390, 1202, 398, 1340, 2408
9391, 598, 164, 3, 400
9392, 2229, 1689, 2178, 1992
9393, 1961, 1590, 1740, 1908
9394, 120, 1753, 1528, 1527
9395, 839, 1211, 854, 2326
9396, 1974, 1973, 1279, 1329
9397, 1762, 186, 11, 622
9398, 170, 8, 621, 1761
9399, 1417, 289, 708, 427
9400, 1931, 1661, 1317, 2238
9401, 209, 225, 224, 643
9402, 1361, 1621, 1362, 2417
9403, 2100, 1948, 1749, 2052
9404, 2025, 548, 2060, 1094
9405, 185, 12, 620, 1058
9406, 619, 7, 169, 1057
9407, 828, 126, 2304, 2428
9408, 820, 2305, 121, 2429
9409, 1505, 1091, 2060, 2014
9410, 1134, 104, 1655, 2337
9411, 806, 807, 1044, 2346
9412, 1553, 417, 1201, 2423
9413, 1626, 1603, 1450, 2345
9414, 2026, 2172, 2280, 1783
9415, 684, 54, 53, 1360
9416, 3, 1508, 594, 400
9417, 1133, 94, 97, 2345
9418, 1468, 1330, 2050, 2197
9419, 1029, 933, 1046, 2410
9420, 1211, 1489, 1647, 2326
9421, 2027, 2173, 1784, 2281
9422, 1497, 2281, 2031, 448
9423, 2280, 2030, 433, 1499
9424, 1907, 2016, 1740, 1961
9425, 1620, 2367, 1573, 2392
9426, 1147, 2414, 1156, 2432
9427, 1810, 2199, 1825, 2335
9428, 325, 748, 82, 415
9429, 106, 2347, 786, 2408
9430, 2105, 2202, 1272, 1826
9431, 1650, 1554, 1264, 2361
9432, 1555, 1651, 1266, 2360
9433, 680, 53, 54, 1360
9434, 1080, 493, 2228, 502
9435, 2228, 493, 1079, 502
9436, 1408, 114, 1471, 1653
9437, 1656, 1617, 1188, 2370
9438, 59, 1909, 695, 1605
9439, 1930, 2087, 2009, 1685
9440, 1915, 1981, 1548, 1727
9441, 220, 2344, 2317, 2437
9442, 662, 946, 664, 2380
9443, 1278, 1273, 1251, 1970
9444, 1875, 749, 1142, 1832
9445, 699, 63, 1604, 1910
9446, 2080, 1690, 2228, 1990
9447, 2010, 2223, 1929, 1316
9448, 1120, 574, 2229, 565
9449, 2229, 574, 1121, 565
9450, 1909, 2139, 59, 695
9451, 1789, 1640, 2270, 1967
9452, 1418, 2062, 1977, 1329
9453, 1109, 530, 1790, 1114
9454, 1010, 826, 829, 2390
9455, 213, 651, 648, 2383
9456, 1003, 944, 894, 2352
9457, 1017, 2326, 873, 2415
9458, 1311, 1550, 1570, 2311
9459, 1135, 2351, 1145, 2386
9460, 945, 2362, 892, 2443
9461, 1827, 1493, 1419, 398
9462, 1995, 1112, 1495, 2057
9463, 814, 816, 430, 2346
9464, 1189, 2375, 1695, 2442
9465, 1282, 1142, 1290, 1875
9466, 424, 993, 1024, 809
9467, 796, 2347, 911, 2395
9468, 1208, 1251, 1272, 2105
9469, 787, 796, 402, 2347
9470, 1400, 1401, 1320, 2433
9471, 1322, 1403, 1402, 2434
9472, 1569, 2310, 1751, 2439
9473, 493, 1690, 1627, 2228
9474, 1522, 533, 1111, 1115
9475, 1261, 1751, 6, 2439
9476, 10, 1316, 606, 1366
9477, 1583, 293, 1725, 410
9478, 325, 1277, 748, 415
9479, 1361, 1362, 1227, 2397
9480, 2311, 2285, 2402, 2444
9481, 216, 200, 217, 631
9482, 398, 1420, 1419, 399
9483, 1359, 49, 50, 678
9484, 1849, 2171, 1851, 2369
9485, 1343, 1975, 1926, 1331
9486, 1998, 1922, 2198, 2339
9487, 2052, 1737, 1125, 2021
9488, 1124, 1736, 2220, 2021
9489, 2023, 2221, 1083, 1734
9490, 1897, 1955, 1989, 2438
9491, 1752, 14, 190, 745
9492, 1430, 361, 764, 2128
9493, 226, 33, 2347, 2395
9494, 1688, 1376, 1363, 2392
9495, 1610, 1265, 1405, 2330
9496, 2286, 2310, 2364, 2424
9497, 1404, 1267, 1609, 2331
9498, 1933, 1934, 1883, 2413
9499, 397, 976, 782, 2425
9500, 920, 2323, 962, 2406
9501, 205, 652, 865, 2328
9502, 220, 2317, 219, 2381
9503, 33, 2389, 291, 2408
9504, 635, 2394, 633, 2412
9505, 1205, 516, 2125, 1106
9506, 1359, 50, 49, 674
9507, 706, 704, 284, 1611
9508, 1478, 1930, 2088, 1283
9509, 31, 215, 2346, 2394
9510, 910, 2346, 814, 2394
9511, 984, 906, 973, 2340
9512, 1502, 2049, 2116, 1823
9513, 1870, 109, 36, 1649
9514, 865, 872, 871, 2328
9515, 1508, 164, 3, 594
9516, 1394, 2128, 1943, 2183
9517, 1187, 68, 287, 1181
9518, 929, 928, 917, 2385
9519, 2125, 1501, 516, 1205
9520, 782, 2334, 400, 2425
9521, 306, 725, 305, 2390
9522, 2205, 1906, 2174, 1701
9523, 1876, 1919, 1290, 1875
9524, 1839, 2118, 1888, 1209
9525, 1423, 1506, 1096, 2014
9526, 1505, 1423, 1091, 2014
9527, 1374, 1524, 1397, 2077
9528, 2072, 1834, 2206, 1137
9529, 80, 1142, 1282, 1875
9530, 577, 1124, 2220, 568
9531, 2220, 1123, 577, 568
9532, 496, 505, 2221, 1083
9533, 505, 496, 2221, 1082
9534, 1264, 721, 302, 2361
9535, 637, 203, 641, 2362
9536, 2207, 2183, 1490, 2006
9537, 644, 2395, 646, 2416
9538, 1057, 7, 169, 899
9539, 1058, 185, 12, 898
9540, 415, 2344, 803, 2427
9541, 2263, 1982, 1641, 1788
9542, 2267, 2164, 1825, 2335
9543, 1548, 1442, 1915, 1727
9544, 1925, 1973, 2102, 1253
9545, 1357, 1963, 1915, 1727
9546, 1768, 1584, 1552, 2364
9547, 1418, 2197, 1468, 1504
9548, 1916, 1915, 1981, 1548
9549, 1080, 503, 2111, 2112
9550, 1034, 726, 1043, 817
9551, 1737, 1736, 569, 2021
9552, 791, 226, 2395, 2416
9553, 1029, 742, 737, 2410
9554, 283, 2398, 31, 2423
9555, 1026, 1015, 923, 2318
9556, 1902, 2386, 1843, 2422
9557, 1171, 2386, 1582, 2403
9558, 2071, 2218, 1075, 1546
9559, 1827, 1493, 1416, 2226
9560, 836, 846, 1041, 2291
9561, 1040, 847, 837, 2292
9562, 600, 1833, 148, 599
9563, 826, 1042, 1010, 443
9564, 398, 1202, 1420, 2389
9565, 1361, 2397, 1676, 2417
9566, 762, 763, 360, 2183
9567, 2003, 2234, 2208, 1475
9568, 1476, 2002, 2235, 2209
9569, 2131, 101, 1800, 2337
9570, 1649, 109, 36, 1472
9571, 945, 2350, 1001, 2362
9572, 2131, 2132, 101, 2337
9573, 1474, 1796, 1579, 2419
9574, 582, 2373, 595, 2439
9575, 1278, 1719, 1591, 1964
9576, 1202, 2389, 398, 2408
9577, 1271, 2102, 1973, 1253
9578, 1760, 117, 1333, 1826
9579, 1883, 2369, 1848, 2413
9580, 825, 725, 448, 447
9581, 1763, 2000, 1088, 1723
9582, 2088, 2219, 1477, 1283
9583, 2369, 2376, 1223, 2409
9584, 1591, 1759, 1590, 2187
9585, 8, 170, 1406, 1761
9586, 1407, 186, 11, 1762
9587, 2051, 2024, 2023, 1379
9588, 1382, 2052, 2022, 2021
9589, 1442, 1916, 1882, 1571
9590, 2240, 40, 231, 1460
9591, 2189, 1123, 1699, 2211
9592, 318, 730, 731, 2316
9593, 447, 2307, 826, 2390
9594, 808, 2394, 215, 2412
9595, 156, 904, 2309, 2405
9596, 1502, 1206, 1109, 531
9597, 398, 1420, 399, 2389
9598, 720, 722, 305, 2321
9599, 1388, 1690, 2080, 1990
9600, 432, 433, 817, 728
9601, 428, 2239, 1417, 2104
9602, 235, 668, 670, 1298
9603, 1250, 1208, 1207, 2106
9604, 1976, 1975, 2087, 1478
9605, 2136, 2038, 266, 689
9606, 715, 1632, 1198, 411
9607, 892, 2362, 2358, 2443
9608, 1495, 527, 1640, 1112
9609, 1698, 1082, 2190, 2210
9610, 112, 2147, 2054, 1313
9611, 1502, 2049, 1978, 2116
9612, 1640, 1495, 1112, 2057
9613, 1501, 1105, 2125, 516
9614, 1924, 1914, 1545, 1964
9615, 223, 716, 222, 2341
9616, 599, 1833, 2253, 1141
9617, 826, 2307, 446, 2390
9618, 516, 1105, 2125, 1106
9619, 1832, 1142, 1446, 2169
9620, 689, 265, 1860, 690
9621, 1416, 1341, 106, 1775
9622, 1417, 427, 2104, 2083
9623, 2215, 2219, 1833, 1141
9624, 1083, 2221, 1434, 1734
9625, 1491, 1393, 2184, 1437
9626, 1736, 1436, 1124, 2220
9627, 1145, 1139, 1147, 2351
9628, 2215, 1418, 1477, 1141
9629, 1012, 950, 644, 2395
9630, 433, 819, 817, 728
9631, 1893, 19, 2271, 629
9632, 1848, 2140, 1922, 2413
9633, 1074, 2218, 1409, 1724
9634, 1221, 1223, 1222, 2369
9635, 746, 985, 2313, 2410
9636, 1043, 817, 726, 2406
9637, 1109, 531, 1110, 2116
9638, 1495, 528, 1112, 1995
9639, 1318, 1290, 1142, 1876
9640, 404, 995, 996, 795
9641, 1330, 1786, 2222, 1271
9642, 1454, 743, 733, 330
9643, 1376, 1691, 1738, 2420
9644, 888, 202, 636, 889
9645, 1033, 723, 825, 1042
9646, 815, 2346, 117, 2423
9647, 2106, 1250, 1924, 1880
9648, 325, 1509, 1277, 415
9649, 1740, 1524, 1374, 1961
9650, 1149, 1158, 1593, 2335
9651, 2113, 1522, 1327, 1962
9652, 784, 1064, 397, 2425
9653, 908, 997, 987, 2382
9654, 1842, 2374, 1899, 2419
9655, 2028, 2244, 1830, 2435
9656, 293, 1583, 712, 410
9657, 1138, 765, 1835, 1720
9658, 1178, 1867, 446, 2266
9659, 431, 2265, 1866, 1176
9660, 1141, 166, 600, 1504
9661, 1709, 1576, 296, 718
9662, 1973, 1974, 2062, 1329
9663, 2146, 115, 2053, 1348
9664, 1146, 1140, 1134, 2322
9665, 1091, 1423, 1505, 523
9666, 1506, 524, 1423, 1096
9667, 2014, 2061, 1096, 550
9668, 2317, 2427, 1027, 2437
9669, 1224, 2369, 1223, 2409
9670, 1421, 704, 285, 1448
9671, 707, 1693, 1511, 2398
9672, 2051, 507, 2101, 1739
9673, 708, 428, 1417, 427
9674, 582, 2373, 2309, 2382
9675, 2116, 1110, 1109, 557
9676, 1416, 1587, 1732, 2046
9677, 1694, 1576, 1420, 2389
9678, 1915, 1916, 1882, 1442
9679, 1011, 633, 948, 2394
9680, 1417, 2239, 1631, 2104
9681, 1835, 2073, 2207, 1138
9682, 2324, 2400, 2286, 2405
9683, 1749, 570, 2100, 2052
9684, 825, 725, 827, 448
9685, 1572, 1223, 1226, 2409
9686, 1508, 3, 164, 400
9687, 1632, 107, 1492, 411
9688, 1114, 1443, 1790, 2047
9689, 222, 2318, 2431, 2441
9690, 1878, 408, 112, 1256
9691, 157, 582, 595, 2439
9692, 1899, 2374, 2418, 2419
9693, 1478, 1975, 1564, 1331
9694, 247, 1470, 677, 679
9695, 1593, 1592, 1574, 2426
9696, 1343, 1916, 2067, 1548
9697, 784, 400, 585, 2425
9698, 1919, 1290, 2194, 1876
9699, 1189, 295, 70, 1182
9700, 2063, 1868, 2135, 2392
9701, 1640, 526, 1097, 2158
9702, 1843, 1902, 2163, 2386
9703, 84, 83, 1367, 756
9704, 1689, 1390, 2178, 1992
9705, 861, 62, 61, 692
9706, 1843, 1809, 1831, 2386
9707, 2090, 2414, 1824, 2432
9708, 1698, 2210, 2190, 2396
9709, 1973, 1925, 1926, 1279
9710, 1445, 2048, 1823, 2047
9711, 731, 2302, 317, 2444
9712, 66, 65, 702, 862
9713, 2222, 2062, 1330, 1271
9714, 596, 2309, 987, 2382
9715, 1926, 1279, 1343, 1331
9716, 1829, 1842, 1864, 2374
9717, 1463, 1462, 1466, 2327
9718, 1454, 733, 1346, 330
9719, 1205, 2125, 1822, 1106
9720, 1029, 336, 992, 737
9721, 1125, 1749, 1737, 2052
9722, 776, 2325, 775, 2351
9723, 1046, 909, 985, 2410
9724, 1567, 2330, 1320, 2433
9725, 290, 1214, 708, 711
9726, 1842, 2374, 1900, 2418
9727, 645, 1025, 206, 642
9728, 1568, 1322, 2331, 2434
9729, 1545, 1251, 1250, 1924
9730, 993, 994, 937, 2371
9731, 1288, 730, 318, 2391
9732, 2049, 1502, 1206, 1823
9733, 1276, 1468, 2203, 1504
9734, 1936, 2170, 2251, 2365
9735, 1827, 1419, 1786, 2050
9736, 1901, 2177, 2028, 2435
9737, 2197, 2062, 1977, 1418
9738, 669, 1861, 1806, 2420
9739, 2102, 1972, 2118, 1210
9740, 888, 2362, 924, 2381
9741, 1503, 1502, 2049, 1978
9742, 1925, 1253, 1571, 1279
9743, 2287, 2329, 2313, 2388
9744, 1700, 2204, 1905, 2175
9745, 42, 234, 918, 800
9746, 1604, 1394, 1430, 2128
9747, 1220, 1221, 1133, 2333
9748, 1044, 807, 806, 420
9749, 763, 764, 361, 2128
9750, 1024, 632, 197, 630
9751, 1691, 1376, 1688, 2421
9752, 1978, 1914, 1537, 1913
9753, 732, 2313, 2388, 2410
9754, 1773, 2152, 474, 1665
9755, 593, 2382, 592, 2440
9756, 841, 851, 849, 2295
9757, 850, 840, 848, 2294
9758, 1643, 1108, 2175, 2041
9759, 1712, 1219, 1586, 2045
9760, 1962, 1673, 1358, 1913
9761, 995, 936, 996, 2372
9762, 1464, 2440, 1544, 2442
9763, 723, 1042, 308, 921
9764, 2206, 1491, 1412, 1137
9765, 451, 1774, 1666, 2151
9766, 2050, 1932, 1468, 2197
9767, 1260, 331, 745, 2388
9768, 1155, 1163, 1148, 2432
9769, 1916, 1925, 1882, 1571
9770, 676, 674, 2159, 1812
9771, 514, 1101, 1523, 1144
9772, 1727, 1981, 1548, 1144
9773, 1907, 1142, 1446, 1832
9774, 542, 2125, 1105, 1106
9775, 1750, 1323, 1116, 2278
9776, 1201, 283, 67, 1130
9777, 12, 620, 1058, 868
9778, 629, 1765, 22, 1242
9779, 549, 2060, 1091, 2014
9780, 226, 2347, 33, 2408
9781, 1719, 1964, 2274, 2098
9782, 931, 989, 915, 2384
9783, 1632, 1492, 107, 1453
9784, 1097, 1425, 1640, 2158
9785, 1206, 530, 1790, 1109
9786, 31, 2346, 215, 2423
9787, 818, 2308, 432, 2406
9788, 985, 885, 746, 2313
9789, 1673, 1358, 1522, 1962
9790, 2350, 2362, 945, 2443
9791, 1651, 314, 77, 1266
9792, 1650, 1264, 73, 302
9793, 1057, 619, 7, 867
9794, 731, 313, 729, 2353
9795, 737, 733, 740, 2297
9796, 713, 715, 1198, 411
9797, 779, 1983, 1985, 2189
9798, 1422, 298, 1544, 719
9799, 117, 120, 1753, 1528
9800, 603, 879, 156, 2405
9801, 32, 2306, 2293, 2379
9802, 939, 2368, 889, 2437
9803, 2138, 1430, 764, 2128
9804, 1464, 2348, 2440, 2442
9805, 1374, 1332, 2202, 2077
9806, 1104, 538, 2040, 1413
9807, 766, 698, 2268, 2180
9808, 1824, 1809, 2163, 2351
9809, 2153, 1965, 2367, 2392
9810, 1523, 1101, 2097, 1144
9811, 1752, 1260, 14, 745
9812, 1930, 1478, 1685, 1283
9813, 2017, 677, 1507, 2278
9814, 991, 964, 152, 588
9815, 103, 1228, 1625, 2393
9816, 1374, 1590, 1740, 1961
9817, 1726, 719, 295, 2442
9818, 80, 749, 1142, 1875
9819, 2049, 2274, 1503, 1978
9820, 1677, 1733, 1616, 2424
9821, 1139, 1575, 1595, 2414
9822, 848, 840, 836, 2294
9823, 837, 841, 849, 2295
9824, 335, 963, 992, 737
9825, 906, 876, 41, 665
9826, 2232, 1846, 2096, 2345
9827, 566, 2110, 1121, 2109
9828, 849, 851, 835, 2295
9829, 834, 850, 848, 2294
9830, 1174, 173, 621, 1480
9831, 1446, 1277, 1524, 2016
9832, 1503, 1719, 2274, 2098
9833, 2296, 2303, 34, 2375
9834, 1060, 588, 592, 2382
9835, 1611, 704, 284, 1421
9836, 416, 1397, 1524, 2242
9837, 1620, 2392, 1363, 2436
9838, 2138, 1910, 1430, 2128
9839, 1206, 1445, 2048, 1823
9840, 2252, 409, 1583, 2103
9841, 1318, 1907, 1908, 1876
9842, 1735, 1377, 2051, 1379
9843, 2243, 1446, 750, 2169
9844, 1699, 2189, 2211, 1984
9845, 2219, 1976, 2088, 1477
9846, 416, 1524, 1510, 2242
9847, 1414, 1643, 1108, 2175
9848, 1574, 777, 2335, 2426
9849, 1424, 1094, 2025, 1505
9850, 684, 2160, 1813, 685
9851, 1982, 2263, 2025, 1788
9852, 1205, 1479, 2216, 1564
9853, 397, 784, 785, 1064
9854, 767, 366, 2206, 1137
9855, 597, 1064, 785, 2425
9856, 1503, 1502, 1206, 2049
9857, 208, 951, 2366, 2395
9858, 904, 156, 879, 2405
9859, 409, 408, 1583, 1216
9860, 1314, 1445, 2122, 2048
9861, 2113, 1327, 1529, 2204
9862, 2286, 2364, 2307, 2424
9863, 1788, 1641, 2263, 1424
9864, 1468, 1782, 1716, 1932
9865, 397, 782, 784, 2425
9866, 1801, 2133, 1831, 2325
9867, 730, 2316, 318, 2391
9868, 2122, 1919, 1314, 2048
9869, 2219, 1477, 1283, 1141
9870, 1231, 1573, 1234, 2367
9871, 1823, 1109, 1206, 556
9872, 1173, 178, 1485, 622
9873, 1414, 1108, 1113, 561
9874, 228, 37, 919, 789
9875, 1136, 1229, 1228, 2336
9876, 602, 2400, 603, 2405
9877, 2202, 1273, 1970, 2105
9878, 587, 1000, 1015, 2431
9879, 400, 594, 3, 585
9880, 415, 82, 744, 735
9881, 2153, 2367, 1896, 2436
9882, 1107, 528, 1443, 1995
9883, 1964, 1719, 1591, 2098
9884, 1099, 2010, 545, 1098
9885, 506, 2023, 1083, 1735
9886, 1897, 2096, 1850, 2333
9887, 589, 591, 585, 2425
9888, 708, 1657, 1214, 290
9889, 2159, 674, 245, 1812
9890, 689, 2038, 266, 691
9891, 749, 80, 79, 1875
9892, 741, 739, 735, 2427
9893, 1495, 1995, 2057, 2238
9894, 1931, 2057, 1495, 1967
9895, 2015, 757, 1425, 2270
9896, 1742, 1448, 328, 734
9897, 695, 2139, 2246, 1429
9898, 245, 676, 674, 2159
9899, 34, 719, 223, 2442
9900, 905, 959, 960, 2324
9901, 1174, 621, 8, 1761
9902, 1530, 2205, 1701, 1326
9903, 1261, 595, 158, 2373
9904, 396, 781, 782, 1070
9905, 2034, 2120, 20, 1087
9906, 1826, 1760, 117, 417
9907, 2194, 1371, 1290, 1919
9908, 1546, 2218, 1075, 1724
9909, 1343, 2067, 1975, 1564
9910, 11, 1173, 1762, 622
9911, 1097, 526, 1092, 2158
9912, 1916, 1981, 2067, 1548
9913, 1714, 1615, 1762, 2349
9914, 1103, 1101, 540, 1523
9915, 411, 2081, 1198, 410
9916, 764, 761, 700, 358
9917, 847, 957, 860, 2378
9918, 859, 956, 846, 2377
9919, 1899, 1980, 2029, 2418
9920, 1727, 1357, 1963, 1523
9921, 323, 749, 750, 2169
9922, 1443, 1114, 555, 2047
9923, 222, 2318, 2383, 2431
9924, 752, 1661, 1931, 2013
9925, 2323, 2402, 2285, 2444
9926, 1747, 1483, 1567, 2433
9927, 1487, 1748, 1568, 2434
9928, 1510, 1397, 1524, 416
9929, 1417, 1772, 1432, 2104
9930, 924, 925, 889, 2381
9931, 1223, 1221, 1226, 2376
9932, 2028, 1979, 1901, 2422
9933, 2007, 2206, 2184, 1491
9934, 432, 818, 431, 2308
9935, 987, 596, 904, 2309
9936, 2104, 1959, 1432, 2083
9937, 399, 1716, 1782, 1932
9938, 1729, 1356, 1496, 449
9939, 1354, 434, 1728, 1498
9940, 1221, 2333, 1449, 2376
9941, 1510, 1277, 415, 2242
9942, 1340, 106, 1493, 1416
9943, 1736, 1737, 1382, 2021
9944, 1104, 1102, 538, 1413
9945, 2163, 1809, 1843, 2386
9946, 1998, 2264, 2262, 2414
9947, 1884, 1936, 1935, 2387
9948, 855, 130, 831, 2304
9949, 856, 832, 123, 2305
9950, 965, 618, 180, 890
9951, 1925, 2118, 1882, 1252
9952, 1753, 1553, 1130, 2423
9953, 1206, 1445, 1823, 2047
9954, 2062, 2197, 1330, 1418
9955, 1347, 583, 160, 1741
9956, 2090, 2264, 1824, 2414
9957, 2129, 2246, 2139, 1429
9958, 495, 1698, 1082, 2190
9959, 917, 990, 930, 2385
9960, 1318, 1740, 1590, 1908
9961, 1271, 1973, 2062, 1329
9962, 790, 995, 1025, 405
9963, 1976, 2219, 1977, 1477
9964, 746, 2313, 732, 2410
9965, 962, 961, 907, 2323
9966, 826, 447, 446, 2307
9967, 1571, 1926, 1925, 1279
9968, 2069, 2208, 2234, 1475
9969, 1123, 1699, 576, 2189
9970, 2068, 1476, 2235, 2209
9971, 721, 306, 2298, 2411
9972, 1270, 2226, 2102, 1972
9973, 1418, 1330, 2062, 1329
9974, 1688, 1620, 1573, 2392
9975, 181, 613, 611, 977
9976, 1413, 1104, 1102, 512
9977, 156, 904, 596, 2309
9978, 681, 2085, 2279, 1565
9979, 1872, 107, 1453, 2200
9980, 1278, 1591, 1590, 2187
9981, 731, 729, 317, 2302
9982, 1989, 2111, 1994, 2438
9983, 316, 1353, 727, 1268
9984, 1026, 923, 976, 2425
9985, 1115, 1111, 1522, 559
9986, 1973, 1926, 1974, 1279
9987, 784, 785, 1064, 2425
9988, 1591, 1371, 1759, 2194
9989, 1419, 1202, 1420, 398
9990, 1901, 1902, 1843, 2422
9991, 2164, 2335, 2267, 2430
9992, 2125, 1702, 1501, 1205
9993, 270, 1917, 693, 694
9994, 1035, 71, 305, 913
9995, 975, 1065, 418, 2427
9996, 912, 1036, 75, 317
9997, 2120, 45, 46, 673
9998, 114, 39, 1471, 1653
9999, 932, 2350, 945, 2443
10000, 2281, 2173, 1309, 1946
10001, 2172, 1945, 2280, 1310
10002, 2231, 1981, 1144, 1501
10003, 586, 590, 588, 2341
10004, 718, 221, 2334, 2389
10005, 521, 1094, 2263, 1641
10006, 697, 768, 771, 363
10007, 1419, 398, 399, 2050
10008, 1028, 968, 873, 2415
10009, 2023, 506, 1084, 1735
10010, 1084, 2051, 2023, 1735
10011, 1482, 1481, 1484, 2356
10012, 1556, 1738, 1334, 2420
10013, 1180, 263, 689, 1667
10014, 1488, 1489, 1486, 2355
10015, 1478, 2088, 1976, 1477
10016, 1593, 1574, 2335, 2426
10017, 1418, 2044, 2197, 1504
10018, 1110, 531, 1502, 2116
10019, 2048, 2049, 1744, 1823
10020, 2005, 2170, 1858, 2365
10021, 1228, 2336, 1451, 2407
10022, 220, 707, 2344, 2398
10023, 917, 928, 883, 2353
10024, 159, 1461, 593, 2440
10025, 416, 417, 1397, 2077
10026, 1197, 1500, 1730, 426
10027, 638, 2368, 640, 2381
10028, 1583, 712, 409, 1216
10029, 555, 1995, 1443, 2047
10030, 1522, 1115, 559, 2113
10031, 1187, 287, 68, 1686
10032, 183, 969, 891, 617
10033, 885, 189, 746, 2313
10034, 870, 892, 2358, 2443
10035, 18, 1073, 1566, 1612
10036, 1505, 1424, 1094, 522
10037, 1425, 525, 1506, 1097
10038, 2061, 2015, 1097, 551
10039, 1020, 939, 975, 2437
10040, 281, 703, 701, 1918
10041, 932, 945, 892, 2443
10042, 800, 918, 42, 902
10043, 1932, 2203, 1468, 1504
10044, 1332, 1333, 1272, 1826
10045, 453, 2152, 861, 1665
10046, 2000, 2120, 46, 673
10047, 881, 720, 880, 300
10048, 1753, 117, 1553, 2423
10049, 2049, 1206, 1744, 1823
10050, 717, 1709, 296, 718
10051, 318, 2391, 2316, 2444
10052, 588, 964, 586, 2341
10053, 1722, 2002, 2209, 2259
10054, 2003, 2208, 2258, 1721
10055, 535, 1414, 1108, 1113
10056, 771, 2277, 2247, 697
10057, 552, 1097, 1092, 2158
10058, 862, 472, 1666, 2151
10059, 498, 1597, 1085, 1739
10060, 777, 2322, 2335, 2426
10061, 2090, 2089, 1951, 2432
10062, 1072, 859, 488, 2428
10063, 824, 440, 860, 2429
10064, 710, 1730, 426, 709
10065, 148, 2044, 1833, 600
10066, 691, 264, 689, 1375
10067, 2049, 1744, 1503, 2098
10068, 1537, 1545, 1441, 1914
10069, 1727, 2097, 1981, 1144
10070, 1507, 1750, 1644, 2017
10071, 828, 1071, 126, 2428
10072, 823, 820, 121, 2429
10073, 2274, 1537, 1503, 1978
10074, 1992, 2185, 1956, 2436
10075, 222, 2341, 716, 2441
10076, 738, 1001, 736, 2350
10077, 1273, 1272, 1251, 2105
10078, 761, 700, 358, 2268
10079, 1277, 1510, 1524, 2242
10080, 2222, 1973, 2062, 1271
10081, 1429, 1605, 2129, 1393
10082, 690, 689, 263, 1667
10083, 1470, 247, 1596, 679
10084, 611, 182, 977, 614
10085, 1332, 1760, 1826, 2077
10086, 366, 1491, 2206, 1137
10087, 1853, 2336, 99, 2393
10088, 2098, 2049, 1744, 2048
10089, 1172, 1474, 1579, 2419
10090, 2103, 1387, 2252, 1957
10091, 1347, 1461, 159, 2440
10092, 1808, 2339, 775, 2351
10093, 1130, 283, 710, 2423
10094, 870, 893, 892, 2443
10095, 1569, 1463, 1677, 2424
10096, 733, 1346, 329, 1742
10097, 1717, 1511, 1693, 2398
10098, 888, 945, 924, 2362
10099, 2216, 2237, 1479, 1205
10100, 737, 740, 736, 2350
10101, 2207, 1490, 1138, 1411
10102, 526, 1640, 1092, 2158
10103, 409, 2056, 2252, 1583
10104, 2194, 2187, 1591, 2098
10105, 1441, 1673, 1537, 1913
10106, 2125, 542, 1822, 1106
10107, 1134, 2337, 1172, 2374
10108, 582, 2309, 596, 2382
10109, 2228, 1079, 1690, 2080
10110, 653, 2366, 887, 2383
10111, 1782, 399, 1932, 2050
10112, 1200, 685, 2174, 1413
10113, 1963, 1357, 1326, 1523
10114, 1270, 1416, 1493, 2226
10115, 583, 593, 592, 2440
10116, 264, 689, 1375, 1180
10117, 1120, 1689, 2178, 2229
10118, 963, 737, 736, 2350
10119, 1974, 1977, 2062, 1329
10120, 1253, 1252, 1925, 1571
10121, 1228, 1452, 1625, 2393
10122, 975, 2427, 803, 2437
10123, 349, 343, 757, 2270
10124, 349, 343, 2270, 756
10125, 1636, 2078, 1119, 2178
10126, 1011, 422, 808, 814
10127, 1988, 1698, 1603, 2190
10128, 1340, 398, 106, 2408
10129, 407, 796, 1012, 791
10130, 1786, 1270, 1827, 2222
10131, 1786, 1270, 2222, 1271
10132, 1656, 1456, 1706, 2370
10133, 2174, 2205, 1701, 1530
10134, 2051, 1084, 1739, 1735
10135, 651, 2366, 653, 2383
10136, 195, 2368, 949, 2394
10137, 1329, 1279, 1974, 1331
10138, 1973, 1271, 1253, 1279
10139, 1277, 1446, 2243, 2016
10140, 1230, 2319, 1592, 2387
10141, 865, 205, 27, 652
10142, 46, 45, 2120, 668
10143, 2121, 2037, 15, 1073
10144, 1025, 405, 983, 792
10145, 220, 2317, 2381, 2437
10146, 2206, 770, 366, 767
10147, 853, 481, 1023, 833
10148, 853, 839, 854, 2326
10149, 1641, 1094, 2263, 1424
10150, 1702, 2125, 1822, 1205
10151, 2271, 22, 19, 767
10152, 1730, 1197, 426, 709
10153, 39, 114, 1871, 1653
10154, 482, 852, 1028, 833
10155, 2237, 2216, 1822, 1205
10156, 1976, 1974, 1975, 1331
10157, 2063, 2185, 1859, 2401
10158, 1875, 79, 749, 1832
10159, 1018, 876, 909, 2363
10160, 1981, 1915, 2097, 1727
10161, 1174, 1715, 1483, 2354
10162, 2077, 2202, 1374, 1961
10163, 1391, 1646, 1364, 2436
10164, 2175, 1113, 1414, 2019
10165, 1495, 1443, 1995, 2238
10166, 1710, 286, 1511, 707
10167, 1634, 1078, 2079, 2080
10168, 1135, 1171, 2325, 2386
10169, 1206, 1744, 1503, 2049
10170, 1436, 1123, 1435, 577
10171, 2171, 1883, 1934, 2369
10172, 1459, 1455, 1456, 2329
10173, 294, 1632, 1198, 715
10174, 461, 839, 1241, 1648
10175, 496, 1433, 1434, 1082
10176, 1764, 1929, 2008, 1685
10177, 1971, 1272, 1586, 2225
10178, 2272, 16, 17, 765
10179, 2064, 1852, 2186, 2397
10180, 1522, 1358, 1327, 1962
10181, 1773, 2208, 1475, 454
10182, 464, 1652, 1240, 838
10183, 925, 939, 889, 2437
10184, 471, 1476, 1774, 2209
10185, 306, 722, 721, 2298
10186, 1725, 1613, 1387, 2103
10187, 625, 190, 623, 2311
10188, 473, 2152, 62, 861
10189, 1973, 2222, 2102, 1271
10190, 223, 214, 650, 2352
10191, 974, 1056, 884, 2338
10192, 1621, 1687, 1572, 2417
10193, 868, 184, 620, 969
10194, 151, 1060, 991, 588
10195, 1201, 417, 1717, 2398
10196, 716, 297, 717, 2441
10197, 190, 745, 732, 2388
10198, 951, 1068, 1022, 2366
10199, 1593, 1588, 1592, 2387
10200, 857, 130, 855, 1679
10201, 858, 856, 123, 1681
10202, 915, 881, 926, 2357
10203, 1577, 2418, 2374, 2419
10204, 1829, 1811, 1842, 2374
10205, 602, 157, 604, 2310
10206, 452, 862, 66, 2151
10207, 1462, 2373, 1461, 2440
10208, 2189, 1699, 779, 1984
10209, 578, 569, 1125, 1737
10210, 790, 224, 793, 408
10211, 1468, 1716, 1276, 1932
10212, 1059, 973, 906, 2340
10213, 1463, 2327, 2424, 2439
10214, 1864, 2374, 1842, 2419
10215, 1594, 2320, 1222, 2413
10216, 1445, 1206, 1790, 2047
10217, 1864, 1842, 1899, 2419
10218, 1778, 697, 771, 363
10219, 230, 1056, 829, 2338
10220, 1004, 892, 945, 2362
10221, 1698, 495, 1081, 2190
10222, 2223, 9, 10, 755
10223, 2140, 376, 775, 2320
10224, 667, 665, 947, 2363
10225, 965, 179, 619, 867
10226, 1495, 1317, 1661, 2238
10227, 642, 983, 207, 2416
10228, 588, 583, 592, 2440
10229, 117, 417, 1553, 2423
10230, 1199, 1414, 1700, 2175
10231, 429, 217, 428, 711
10232, 904, 879, 905, 2405
10233, 1059, 232, 821, 2340
10234, 982, 630, 196, 2412
10235, 1602, 2189, 1699, 2393
10236, 117, 120, 1528, 2201
10237, 2160, 1813, 258, 684
10238, 1502, 1503, 1537, 1978
10239, 70, 295, 1189, 1726
10240, 1908, 2212, 1590, 2187
10241, 576, 1699, 1122, 2189
10242, 1231, 1229, 1230, 2332
10243, 1710, 1448, 285, 705
10244, 618, 613, 180, 890
10245, 2003, 121, 434, 1728
10246, 126, 1729, 2002, 449
10247, 1139, 1147, 2351, 2414
10248, 803, 975, 418, 2427
10249, 107, 106, 1341, 2200
10250, 417, 1397, 1717, 416
10251, 1107, 1443, 1114, 555
10252, 2112, 1988, 1603, 2190
10253, 586, 1000, 587, 2431
10254, 1790, 529, 1443, 1114
10255, 961, 962, 1036, 2323
10256, 165, 2203, 600, 1504
10257, 1102, 2020, 2174, 1413
10258, 864, 1531, 1722, 2259
10259, 1721, 863, 2258, 1532
10260, 1413, 2040, 1104, 1642
10261, 10, 9, 2223, 606
10262, 1963, 2097, 1915, 1727
10263, 100, 99, 2319, 2336
10264, 686, 688, 260, 1633
10265, 1101, 2097, 540, 1523
10266, 354, 1982, 2025, 1788
10267, 1998, 1933, 1922, 2413
10268, 1640, 2158, 2270, 1967
10269, 960, 959, 1035, 2324
10270, 400, 1276, 1716, 1932
10271, 2206, 770, 1491, 366
10272, 1111, 1143, 1522, 2099
10273, 2327, 2373, 2309, 2439
10274, 1108, 1414, 2175, 561
10275, 726, 728, 317, 2406
10276, 298, 1422, 716, 719
10277, 269, 2069, 1917, 694
10278, 1702, 1343, 2067, 1548
10279, 2016, 2242, 1524, 1961
10280, 1577, 2374, 1172, 2419
10281, 1202, 1129, 69, 291
10282, 1984, 387, 2132, 780
10283, 782, 400, 784, 2425
10284, 409, 712, 1583, 410
10285, 1977, 1418, 1329, 1477
10286, 2067, 1343, 1702, 1564
10287, 1330, 1786, 2050, 2222
10288, 2288, 2382, 2373, 2440
10289, 2003, 2208, 1721, 1475
10290, 228, 37, 662, 919
10291, 1874, 2253, 2088, 1283
10292, 1476, 1722, 2002, 2209
10293, 1917, 2144, 693, 694
10294, 1982, 354, 755, 1788
10295, 1343, 1571, 1916, 1548
10296, 1210, 2102, 1270, 1253
10297, 1249, 1127, 1248, 2445
10298, 1247, 1246, 1128, 2446
10299, 2153, 2135, 1965, 2392
10300, 1918, 282, 703, 2068
10301, 740, 734, 736, 2350
10302, 1327, 1700, 1529, 2204
10303, 2175, 1414, 1113, 561
10304, 2176, 1899, 2029, 2419
10305, 1364, 1620, 1363, 2436
10306, 638, 23, 949, 1019
10307, 1594, 2339, 2320, 2413
10308, 2190, 1988, 773, 1986
10309, 1661, 752, 753, 2013
10310, 358, 700, 278, 2268
10311, 559, 1111, 1522, 2099
10312, 292, 714, 712, 1216
10313, 102, 2322, 101, 2337
10314, 1265, 1320, 1405, 2330
10315, 687, 57, 58, 1612
10316, 1592, 2387, 2319, 2426
10317, 715, 291, 1129, 2408
10318, 1404, 1322, 1267, 2331
10319, 836, 844, 846, 2291
10320, 847, 845, 837, 2292
10321, 1973, 1271, 1279, 1329
10322, 1522, 533, 1143, 1111
10323, 1895, 2376, 1966, 2404
10324, 1357, 1915, 1442, 1727
10325, 1685, 1479, 2009, 1392
10326, 573, 1636, 1119, 2178
10327, 1269, 1650, 73, 302
10328, 1268, 314, 77, 1651
10329, 1577, 1579, 2418, 2419
10330, 767, 2206, 1834, 1137
10331, 1150, 1577, 1203, 2418
10332, 761, 86, 1746, 766
10333, 2066, 2078, 1636, 2178
10334, 2348, 2375, 2296, 2442
10335, 2040, 538, 2174, 1413
10336, 2197, 1468, 1330, 1418
10337, 658, 208, 651, 2366
10338, 1861, 238, 670, 669
10339, 1446, 1142, 323, 2169
10340, 2067, 2125, 1822, 1702
10341, 2090, 2262, 2264, 2414
10342, 947, 233, 665, 667
10343, 892, 866, 870, 2358
10344, 1998, 2198, 2264, 2414
10345, 1494, 1764, 2010, 1392
10346, 614, 183, 891, 617
10347, 1048, 1052, 723, 307
10348, 1899, 1842, 1900, 2418
10349, 847, 860, 832, 2378
10350, 859, 846, 831, 2377
10351, 2102, 2222, 1270, 1271
10352, 1529, 1700, 2175, 2019
10353, 636, 1004, 888, 2362
10354, 1701, 1200, 2174, 1413
10355, 1278, 1545, 1719, 1964
10356, 358, 699, 764, 2138
10357, 1580, 1148, 1204, 2422
10358, 636, 888, 889, 2381
10359, 1464, 1695, 2348, 2442
10360, 1035, 305, 71, 921
10361, 1114, 529, 1443, 1107
10362, 1463, 1569, 1751, 2439
10363, 2203, 165, 1276, 1504
10364, 1225, 1224, 1223, 2409
10365, 1221, 1449, 1226, 2376
10366, 1443, 1107, 1995, 555
10367, 1922, 2140, 2123, 2339
10368, 691, 58, 57, 1612
10369, 1160, 1376, 1556, 2420
10370, 920, 75, 1036, 317
10371, 2145, 701, 703, 1918
10372, 126, 1531, 864, 2259
10373, 863, 121, 2258, 1532
10374, 859, 952, 956, 2428
10375, 860, 957, 953, 2429
10376, 2077, 1524, 1397, 2242
10377, 2203, 1468, 1276, 1932
10378, 937, 869, 980, 2371
10379, 481, 873, 1023, 833
10380, 1975, 1343, 1564, 1331
10381, 1078, 1634, 492, 2080
10382, 873, 482, 1028, 833
10383, 750, 749, 339, 2169
10384, 1140, 394, 1134, 2322
10385, 1495, 1443, 528, 1995
10386, 1109, 2116, 557, 1823
10387, 871, 936, 981, 2372
10388, 1129, 1202, 1340, 2408
10389, 2016, 1740, 1446, 1907
10390, 596, 582, 156, 2309
10391, 1127, 1604, 64, 701
10392, 1832, 339, 749, 2169
10393, 1956, 2153, 1896, 2436
10394, 1341, 1632, 107, 1453
10395, 2096, 2333, 1897, 2438
10396, 1447, 1741, 161, 2441
10397, 906, 41, 232, 665
10398, 1584, 1289, 1552, 2411
10399, 435, 1059, 821, 818
10400, 684, 258, 2160, 685
10401, 1744, 1591, 1503, 2098
10402, 1571, 1442, 1916, 1548
10403, 1693, 283, 67, 1201
10404, 1102, 2174, 538, 1413
10405, 696, 62, 61, 861
10406, 586, 2341, 1000, 2431
10407, 718, 1694, 291, 2389
10408, 1510, 415, 416, 2242
10409, 644, 950, 208, 2395
10410, 2309, 2373, 2288, 2382
10411, 696, 2179, 62, 861
10412, 627, 626, 192, 1291
10413, 987, 904, 986, 2309
10414, 1605, 60, 693, 1128
10415, 2184, 369, 769, 770
10416, 1209, 1252, 2118, 1210
10417, 1410, 673, 45, 1763
10418, 501, 492, 2080, 1078
10419, 492, 501, 2080, 1079
10420, 1450, 1220, 2345, 2438
10421, 1271, 2062, 1330, 1329
10422, 1143, 1502, 1537, 1978
10423, 485, 848, 989, 1014
10424, 990, 478, 1013, 849
10425, 920, 317, 2323, 2406
10426, 189, 732, 746, 2313
10427, 698, 65, 66, 862
10428, 1261, 6, 595, 2439
10429, 1727, 1963, 2097, 1523
10430, 1696, 696, 772, 1778
10431, 1564, 2087, 1975, 1478
10432, 2225, 1333, 1586, 2045
10433, 417, 1826, 1760, 2077
10434, 1419, 1340, 1202, 398
10435, 1156, 1595, 1711, 2414
10436, 1929, 1930, 2008, 1685
10437, 811, 814, 430, 2346
10438, 2137, 1861, 238, 670
10439, 1556, 669, 236, 1160
10440, 794, 402, 796, 2347
10441, 1262, 1248, 1165, 2445
10442, 271, 697, 1778, 363
10443, 1263, 1166, 1246, 2446
10444, 929, 930, 940, 2385
10445, 762, 1490, 359, 1138
10446, 621, 607, 170, 2354
10447, 278, 699, 358, 2138
10448, 2184, 2129, 1944, 1393
10449, 1749, 1380, 1737, 2052
10450, 637, 2362, 636, 2381
10451, 1135, 1139, 1145, 2351
10452, 1419, 1827, 398, 2050
10453, 1582, 2422, 1581, 2435
10454, 948, 633, 195, 2394
10455, 1640, 526, 1425, 1097
10456, 1926, 1916, 2067, 1343
10457, 415, 805, 735, 2427
10458, 1760, 1333, 1332, 1826
10459, 1978, 1537, 1673, 1913
10460, 775, 1808, 2123, 2339
10461, 2253, 2, 1, 599
10462, 1503, 2274, 2049, 2098
10463, 985, 984, 885, 2313
10464, 964, 934, 944, 2341
10465, 598, 165, 1276, 2203
10466, 1962, 2099, 1673, 1913
10467, 949, 195, 23, 638
10468, 2113, 559, 1522, 2099
10469, 826, 825, 1042, 443
10470, 946, 877, 664, 2380
10471, 597, 591, 155, 2425
10472, 214, 222, 648, 2352
10473, 644, 29, 208, 950
10474, 747, 332, 741, 2427
10475, 966, 967, 968, 2415
10476, 1795, 681, 2279, 1565
10477, 682, 251, 680, 1597
10478, 2132, 101, 779, 780
10479, 2150, 1846, 2232, 2345
10480, 1024, 424, 810, 982
10481, 1788, 2263, 2025, 1424
10482, 217, 708, 428, 711
10483, 1896, 1965, 1858, 2367
10484, 417, 416, 1717, 2398
10485, 198, 641, 655, 2358
10486, 230, 663, 664, 2380
10487, 1971, 2105, 1272, 2225
10488, 636, 1004, 201, 888
10489, 418, 1065, 805, 2427
10490, 2179, 2277, 772, 696
10491, 1480, 173, 621, 615
10492, 1494, 2233, 2223, 1366
10493, 2218, 1074, 1075, 1724
10494, 1595, 1575, 1594, 2339
10495, 573, 564, 2178, 1119
10496, 564, 573, 2178, 1120
10497, 1749, 579, 1668, 1126
10498, 1051, 901, 76, 313
10499, 900, 72, 301, 1052
10500, 2203, 1932, 2044, 1504
10501, 1760, 1332, 1397, 2077
10502, 1553, 1201, 1130, 2423
10503, 2099, 1673, 1522, 1962
10504, 1544, 1464, 1347, 2440
10505, 1201, 1553, 1760, 417
10506, 2199, 1923, 1999, 2426
10507, 2310, 2364, 1552, 2411
10508, 1479, 2283, 2009, 1392
10509, 1673, 1143, 1537, 1978
10510, 2000, 2217, 1088, 1723
10511, 1847, 1850, 2096, 2333
10512, 1978, 1673, 1143, 2099
10513, 1477, 1478, 2088, 1283
10514, 1441, 1358, 1673, 1913
10515, 198, 657, 634, 2371
10516, 2004, 1851, 2171, 2409
10517, 1429, 2129, 768, 364
10518, 1394, 763, 2128, 2183
10519, 324, 1446, 750, 2243
10520, 400, 782, 399, 2334
10521, 1331, 1478, 1976, 1477
10522, 852, 874, 483, 1028
10523, 178, 616, 1485, 622
10524, 416, 803, 415, 2344
10525, 1261, 158, 1461, 2373
10526, 6, 157, 595, 2439
10527, 875, 480, 1023, 853
10528, 1134, 1655, 1172, 2337
10529, 948, 23, 195, 633
10530, 764, 763, 357, 2128
10531, 241, 2078, 671, 672
10532, 1003, 212, 649, 652
10533, 1584, 1552, 2364, 2411
10534, 205, 647, 659, 2372
10535, 963, 945, 932, 2350
10536, 1151, 1131, 1152, 2399
10537, 93, 94, 2320, 2345
10538, 2203, 598, 165, 600
10539, 1142, 1446, 1318, 1907
10540, 677, 1507, 1644, 2017
10541, 2158, 1097, 1425, 2015
10542, 1926, 2067, 1975, 1343
10543, 2052, 1382, 1737, 2021
10544, 2010, 2223, 1316, 1494
10545, 894, 872, 865, 2328
10546, 1916, 1926, 1571, 1343
10547, 1347, 159, 583, 2440
10548, 1417, 1197, 289, 427
10549, 586, 587, 584, 2441
10550, 919, 789, 37, 903
10551, 2087, 2216, 1479, 1564
10552, 421, 816, 807, 2346
10553, 2140, 2320, 775, 2339
10554, 1230, 1588, 1232, 2387
10555, 880, 72, 301, 900
10556, 901, 882, 76, 313
10557, 1416, 106, 1827, 2226
10558, 825, 447, 826, 2390
10559, 2050, 1786, 1827, 2222
10560, 620, 608, 185, 2343
10561, 2095, 1854, 1853, 2336
10562, 1753, 1333, 117, 1528
10563, 169, 607, 619, 2342
10564, 1282, 1661, 753, 2013
10565, 34, 660, 205, 2328
10566, 418, 805, 803, 2427
10567, 2085, 2279, 2018, 681
10568, 1332, 1374, 1397, 2077
10569, 951, 208, 950, 2395
10570, 1853, 2149, 2230, 2393
10571, 1397, 416, 2077, 2242
10572, 1260, 1454, 331, 2388
10573, 814, 910, 816, 2346
10574, 208, 29, 1021, 951
10575, 2237, 2009, 2087, 1479
10576, 787, 911, 796, 2347
10577, 2099, 1978, 1673, 1913
10578, 688, 262, 2079, 686
10579, 2222, 1270, 1827, 2102
10580, 421, 806, 117, 2346
10581, 473, 2152, 861, 453
10582, 348, 354, 759, 1788
10583, 348, 354, 1788, 755
10584, 1202, 69, 1694, 291
10585, 1857, 1858, 1856, 2332
10586, 159, 593, 583, 2440
10587, 569, 2052, 1125, 2021
10588, 2023, 506, 2051, 1084
10589, 2067, 2216, 1975, 1564
10590, 472, 862, 452, 2151
10591, 1198, 294, 715, 713
10592, 207, 1012, 644, 2416
10593, 768, 695, 1429, 363
10594, 672, 671, 239, 1635
10595, 633, 1011, 196, 2412
10596, 1490, 762, 2207, 1138
10597, 1392, 2008, 2010, 1098
10598, 1695, 1660, 1465, 2348
10599, 927, 941, 931, 2384
10600, 1632, 1492, 1198, 411
10601, 2062, 1330, 2050, 2222
10602, 2225, 1272, 1333, 1826
10603, 806, 1044, 420, 1020
10604, 726, 1051, 1047, 312
10605, 787, 105, 1045, 401
10606, 2197, 1330, 2050, 2062
10607, 269, 2069, 694, 692
10608, 2079, 2065, 1634, 2080
10609, 42, 234, 667, 918
10610, 1011, 910, 422, 814
10611, 763, 762, 356, 2183
10612, 283, 1693, 707, 2398
10613, 796, 1012, 911, 407
10614, 1270, 1493, 1786, 1827
10615, 696, 772, 2179, 1696
10616, 427, 428, 1417, 2104
10617, 1446, 2243, 2016, 2169
10618, 1070, 782, 396, 976
10619, 2090, 1824, 2163, 2432
10620, 1661, 1443, 2238, 2122
10621, 1086, 2279, 2085, 1565
10622, 1137, 767, 22, 1242
10623, 1422, 297, 716, 2441
10624, 58, 2121, 2001, 687
10625, 99, 778, 777, 2319
10626, 156, 602, 603, 2405
10627, 1108, 2175, 2041, 561
10628, 1470, 1596, 580, 1118
10629, 273, 2246, 697, 695
10630, 707, 1710, 286, 705
10631, 1443, 1495, 1661, 2238
10632, 1429, 695, 271, 363
10633, 1445, 1443, 2122, 2047
10634, 2129, 769, 768, 364
10635, 831, 488, 859, 2428
10636, 440, 832, 860, 2429
10637, 203, 637, 219, 2362
10638, 682, 2085, 254, 681
10639, 222, 223, 2341, 2352
10640, 1612, 687, 57, 1409
10641, 1716, 399, 400, 1932
10642, 2103, 1725, 2081, 410
10643, 671, 673, 240, 1547
10644, 686, 259, 687, 1546
10645, 874, 1014, 834, 484
10646, 777, 778, 101, 2322
10647, 673, 242, 2070, 671
10648, 697, 2277, 274, 696
10649, 798, 110, 403, 789
10650, 113, 800, 802, 413
10651, 776, 377, 96, 2325
10652, 1985, 2110, 2230, 2393
10653, 2087, 1930, 1478, 1685
10654, 651, 221, 2366, 2383
10655, 1271, 1270, 2102, 1253
10656, 876, 947, 233, 665
10657, 2164, 2091, 1900, 2430
10658, 1788, 755, 1982, 1366
10659, 34, 2328, 205, 2372
10660, 427, 1197, 289, 709
10661, 2153, 2392, 2367, 2436
10662, 38, 230, 877, 884
10663, 38, 230, 664, 877
10664, 225, 226, 791, 2416
10665, 280, 1774, 1541, 703
10666, 797, 403, 109, 788
10667, 801, 114, 413, 799
10668, 1122, 1602, 2110, 2189
10669, 479, 875, 1013, 835
10670, 1127, 279, 1165, 701
10671, 2112, 1603, 1081, 2190
10672, 2089, 2163, 1902, 2432
10673, 1136, 1592, 1230, 2319
10674, 1155, 1147, 1156, 2432
10675, 426, 427, 1197, 2083
10676, 649, 653, 211, 2383
10677, 808, 215, 216, 2412
10678, 1827, 1270, 1493, 2226
10679, 1416, 1270, 1587, 2226
10680, 2200, 106, 1416, 2046
10681, 1171, 1654, 1135, 2325
10682, 218, 219, 2350, 2362
10683, 662, 229, 664, 946
10684, 1760, 1397, 417, 2077
10685, 94, 776, 775, 2320
10686, 702, 703, 282, 2068
10687, 100, 99, 2336, 2393
10688, 1081, 1603, 1698, 2190
10689, 1768, 1212, 1584, 2364
10690, 1735, 1734, 1083, 497
10691, 1316, 1764, 2010, 1494
10692, 1760, 1397, 1717, 417
10693, 766, 1697, 275, 698
10694, 1807, 1860, 265, 690
10695, 687, 2071, 261, 686
10696, 1377, 2051, 1739, 1735
10697, 218, 2358, 641, 2362
10698, 2013, 1661, 1931, 2238
10699, 2197, 1977, 2215, 1418
10700, 2274, 1914, 1537, 1978
10701, 268, 693, 1128, 1166
10702, 641, 636, 637, 2362
10703, 1374, 1332, 1273, 2202
10704, 1826, 2202, 1332, 2077
10705, 1540, 267, 694, 1773
10706, 1133, 1222, 1594, 2320
10707, 247, 1470, 1507, 677
10708, 2287, 2388, 2313, 2410
10709, 1862, 1831, 1863, 2403
10710, 29, 208, 1021, 653
10711, 635, 654, 195, 2394
10712, 117, 2346, 806, 2423
10713, 213, 221, 651, 2383
10714, 2092, 2164, 2267, 2430
10715, 776, 94, 378, 2320
10716, 1043, 311, 920, 2406
10717, 888, 636, 2362, 2381
10718, 1071, 130, 831, 488
10719, 123, 440, 823, 832
10720, 2246, 2129, 768, 1429
10721, 2264, 2198, 1824, 2414
10722, 218, 2358, 2362, 2443
10723, 750, 1446, 323, 2169
10724, 641, 639, 636, 2362
10725, 730, 321, 314, 1266
10726, 1277, 2243, 415, 2242
10727, 685, 683, 2174, 1413
10728, 1668, 248, 678, 679
10729, 501, 2079, 1078, 2080
10730, 1145, 1147, 1148, 2432
10731, 2175, 675, 1643, 2041
10732, 1495, 2057, 1931, 2238
10733, 2, 599, 1283, 1141
10734, 901, 953, 957, 2429
10735, 952, 900, 956, 2428
10736, 329, 740, 733, 1742
10737, 741, 1027, 333, 1016
10738, 2154, 2404, 1966, 2417
10739, 1045, 401, 783, 2347
10740, 404, 790, 995, 795
10741, 1702, 1822, 2216, 1205
10742, 305, 720, 913, 299
10743, 646, 210, 643, 2416
10744, 1330, 1786, 1419, 2050
10745, 1026, 591, 154, 1015
10746, 1318, 1590, 1759, 1908
10747, 1229, 1231, 1234, 2332
10748, 1103, 2119, 2020, 1530
10749, 680, 2101, 253, 682
10750, 1143, 1502, 1978, 2227
10751, 2113, 1529, 1115, 2019
10752, 208, 661, 646, 2395
10753, 1132, 318, 315, 727
10754, 1289, 303, 721, 306
10755, 592, 593, 582, 2382
10756, 2129, 2184, 769, 1393
10757, 1430, 1745, 699, 2138
10758, 1323, 2284, 1116, 2278
10759, 718, 33, 221, 2389
10760, 635, 631, 199, 2412
10761, 1307, 1688, 1573, 2421
10762, 784, 597, 785, 2425
10763, 1680, 856, 843, 457
10764, 468, 1678, 855, 842
10765, 1089, 1088, 2217, 1723
10766, 1291, 626, 192, 1243
10767, 2267, 2199, 1999, 2335
10768, 679, 677, 249, 2086
10769, 2087, 2216, 2237, 1479
10770, 1636, 1689, 1390, 2178
10771, 1122, 1699, 1602, 2189
10772, 1676, 1361, 1159, 2397
10773, 224, 408, 409, 714
10774, 308, 305, 723, 921
10775, 713, 1725, 293, 410
10776, 251, 682, 1639, 1597
10777, 1070, 938, 1022, 2366
10778, 876, 947, 665, 2363
10779, 1551, 1770, 1552, 2411
10780, 595, 2373, 1261, 2439
10781, 1296, 1551, 1289, 2411
10782, 817, 818, 432, 2406
10783, 884, 38, 230, 1056
10784, 1884, 1923, 1855, 2387
10785, 250, 678, 679, 2100
10786, 232, 41, 906, 1059
10787, 1578, 1577, 1579, 2418
10788, 1201, 1760, 1717, 417
10789, 1916, 1926, 1925, 1571
10790, 1443, 1445, 1790, 2047
10791, 142, 1089, 1117, 1547
10792, 1333, 1586, 1272, 2225
10793, 218, 2362, 2350, 2443
10794, 213, 648, 222, 2383
10795, 1371, 1314, 1290, 1919
10796, 590, 160, 583, 1741
10797, 2019, 2175, 1113, 561
10798, 883, 916, 917, 2353
10799, 1999, 1923, 1935, 2387
10800, 1276, 598, 2203, 400
10801, 1072, 952, 859, 2428
10802, 953, 824, 860, 2429
10803, 2068, 1774, 471, 451
10804, 1773, 474, 2069, 454
10805, 1919, 1314, 2013, 2122
10806, 230, 829, 35, 2338
10807, 638, 1019, 949, 2368
10808, 96, 2325, 1654, 2396
10809, 1643, 535, 1414, 1108
10810, 1563, 256, 684, 1236
10811, 40, 821, 232, 2340
10812, 204, 637, 640, 2381
10813, 586, 964, 1000, 2341
10814, 1598, 465, 1240, 850
10815, 1149, 1146, 1150, 2430
10816, 1241, 1599, 851, 460
10817, 948, 195, 949, 2394
10818, 1604, 63, 64, 701
10819, 693, 59, 60, 1605
10820, 695, 60, 59, 1605
10821, 1318, 1446, 1740, 1907
10822, 168, 1770, 604, 1312
10823, 188, 1311, 625, 1769
10824, 1741, 590, 161, 2441
10825, 1314, 1661, 1282, 2013
10826, 980, 993, 937, 2371
10827, 699, 1745, 764, 2138
10828, 2249, 1863, 2134, 2396
10829, 1022, 1045, 395, 783
10830, 777, 778, 2322, 2426
10831, 817, 1043, 436, 2406
10832, 2046, 1416, 1587, 2226
10833, 1065, 338, 805, 747
10834, 893, 933, 932, 2443
10835, 901, 998, 953, 2429
10836, 900, 952, 999, 2428
10837, 430, 816, 815, 2346
10838, 243, 1238, 1562, 674
10839, 1604, 64, 63, 699
10840, 2067, 1822, 2216, 1702
10841, 786, 787, 402, 2347
10842, 106, 1340, 1341, 1416
10843, 995, 981, 936, 2372
10844, 1608, 627, 192, 1291
10845, 649, 1003, 652, 2352
10846, 538, 2020, 2174, 1102
10847, 1136, 100, 2319, 2336
10848, 949, 1020, 1069, 2368
10849, 1443, 1995, 2238, 2122
10850, 1413, 683, 2040, 1642
10851, 1966, 2376, 1851, 2409
10852, 2208, 1721, 1475, 454
10853, 2017, 1750, 1116, 2278
10854, 1722, 1476, 471, 2209
10855, 564, 1119, 2078, 2178
10856, 746, 337, 985, 2410
10857, 920, 962, 1009, 2406
10858, 1171, 2325, 2386, 2403
10859, 31, 195, 654, 2394
10860, 1388, 1690, 1634, 2080
10861, 328, 740, 1742, 734
10862, 417, 804, 416, 2398
10863, 290, 1181, 1214, 711
10864, 415, 803, 805, 2427
10865, 1445, 2122, 2048, 2047
10866, 2025, 2263, 1094, 1424
10867, 1037, 947, 1018, 2363
10868, 1981, 2231, 2125, 1501
10869, 29, 208, 950, 951
10870, 86, 275, 1746, 766
10871, 1579, 1578, 2418, 2419
10872, 2023, 1734, 1735, 1379
10873, 1853, 99, 2149, 2393
10874, 2225, 117, 1333, 2045
10875, 2247, 2246, 367, 771
10876, 2020, 539, 1103, 1102
10877, 1654, 2325, 1171, 2403
10878, 208, 33, 661, 2395
10879, 1620, 2367, 2392, 2436
10880, 868, 1038, 1032, 2343
10881, 775, 776, 96, 2325
10882, 576, 1699, 1123, 1435
10883, 765, 1835, 2207, 1138
10884, 216, 217, 428, 810
10885, 1449, 2333, 1220, 2438
10886, 399, 781, 398, 2389
10887, 1524, 1740, 1446, 2016
10888, 270, 1917, 2144, 693
10889, 220, 31, 707, 2398
10890, 1576, 1694, 296, 718
10891, 1130, 283, 67, 710
10892, 1115, 1113, 560, 2019
10893, 1580, 1581, 1582, 2422
10894, 681, 2279, 2018, 1795
10895, 1279, 1571, 1926, 1343
10896, 1136, 393, 1592, 2319
10897, 1919, 2194, 1371, 2048
10898, 2138, 764, 357, 2128
10899, 681, 252, 682, 1565
10900, 208, 1021, 653, 2366
10901, 1102, 2020, 1413, 1530
10902, 2203, 2044, 600, 1504
10903, 1113, 1529, 1414, 2019
10904, 1077, 136, 2085, 1086
10905, 701, 1165, 1127, 2445
10906, 13, 189, 885, 878
10907, 2119, 2205, 2020, 1530
10908, 2209, 2068, 471, 451
10909, 2208, 2069, 474, 454
10910, 1070, 396, 781, 1022
10911, 1868, 1892, 2135, 2421
10912, 2132, 387, 101, 780
10913, 1808, 1809, 1824, 2351
10914, 1921, 2188, 191, 627
10915, 596, 987, 150, 2382
10916, 223, 660, 34, 2328
10917, 716, 717, 222, 2441
10918, 867, 1031, 1039, 2342
10919, 2078, 2157, 241, 671
10920, 1965, 1896, 2153, 2367
10921, 2154, 2186, 1955, 2404
10922, 198, 655, 32, 2358
10923, 881, 915, 914, 2357
10924, 2220, 569, 1124, 2021
10925, 2023, 2221, 506, 1083
10926, 1719, 1537, 1503, 2274
10927, 1522, 1327, 1529, 2113
10928, 81, 338, 1065, 747
10929, 861, 696, 2179, 1696
10930, 1529, 1700, 1414, 2175
10931, 1043, 726, 311, 2406
10932, 712, 224, 409, 714
10933, 2145, 281, 701, 1918
10934, 626, 191, 2188, 627
10935, 2238, 2013, 1661, 2122
10936, 2087, 1930, 2088, 1478
10937, 1699, 392, 1602, 2393
10938, 861, 2179, 772, 1696
10939, 292, 712, 1583, 1216
10940, 380, 1133, 1594, 2320
10941, 922, 887, 923, 2383
10942, 1198, 1725, 293, 713
10943, 770, 2184, 2206, 1491
10944, 295, 714, 70, 1182
10945, 812, 993, 994, 425
10946, 1782, 1330, 1419, 2050
10947, 1128, 1166, 693, 2446
10948, 32, 198, 2358, 2371
10949, 2344, 2427, 2317, 2437
10950, 1446, 324, 1277, 2243
10951, 1735, 2051, 2023, 1379
10952, 133, 2071, 1075, 1076
10953, 1089, 2070, 141, 1117
10954, 1076, 1075, 134, 1546
10955, 106, 786, 107, 2408
10956, 1789, 1425, 343, 757
10957, 904, 156, 5, 879
10958, 1094, 2263, 547, 1093
10959, 2282, 1892, 2181, 2421
10960, 1361, 1676, 1687, 2417
10961, 2148, 2079, 262, 686
10962, 223, 650, 660, 2328
10963, 836, 848, 989, 485
10964, 1086, 1077, 135, 1565
10965, 849, 990, 478, 837
10966, 2095, 2230, 1993, 2407
10967, 2246, 768, 695, 1429
10968, 1829, 1865, 2131, 2337
10969, 1719, 1503, 1591, 2098
10970, 784, 400, 3, 585
10971, 409, 790, 224, 792
10972, 2341, 2352, 944, 2431
10973, 1205, 2216, 1702, 1564
10974, 1862, 1863, 1904, 2403
10975, 420, 804, 806, 1020
10976, 497, 506, 1735, 1084
10977, 497, 506, 1083, 1735
10978, 586, 590, 2341, 2441
10979, 656, 640, 195, 2368
10980, 910, 1044, 816, 2346
10981, 1490, 762, 2183, 2207
10982, 145, 2284, 1118, 2086
10983, 787, 1045, 911, 2347
10984, 495, 1698, 1433, 1082
10985, 1988, 2150, 773, 371
10986, 1122, 576, 2189, 567
10987, 2189, 576, 1123, 567
10988, 2190, 1082, 495, 504
10989, 2190, 495, 1081, 504
10990, 775, 2339, 776, 2351
10991, 707, 31, 283, 2398
10992, 32, 657, 198, 2371
10993, 604, 157, 6, 1312
10994, 190, 14, 1311, 625
10995, 1434, 496, 1083, 1734
10996, 1436, 577, 1736, 1124
10997, 2009, 2008, 1685, 1392
10998, 1226, 1659, 1621, 2404
10999, 1140, 1593, 1574, 2335
11000, 659, 34, 205, 2372
11001, 1205, 2237, 517, 1106
11002, 1677, 1463, 1733, 2424
11003, 1812, 674, 245, 1805
11004, 1233, 1573, 1231, 2365
11005, 638, 949, 195, 2368
11006, 1277, 1509, 1510, 415
11007, 2158, 552, 1097, 2015
11008, 2018, 681, 1795, 1426
11009, 1641, 521, 1094, 1424
11010, 1461, 2373, 593, 2440
11011, 2161, 253, 2101, 682
11012, 963, 736, 1001, 2350
11013, 224, 225, 409, 792
11014, 292, 1182, 714, 1216
11015, 2233, 1982, 2223, 1366
11016, 120, 815, 117, 2423
11017, 1314, 1445, 1443, 2122
11018, 2157, 2070, 242, 671
11019, 168, 1770, 1406, 604
11020, 1407, 188, 625, 1769
11021, 956, 900, 1053, 2377
11022, 1054, 901, 957, 2378
11023, 2034, 46, 2120, 668
11024, 2251, 2170, 2005, 2365
11025, 1274, 1488, 1486, 2355
11026, 1072, 129, 859, 952
11027, 124, 953, 824, 860
11028, 690, 56, 55, 2397
11029, 1566, 691, 57, 1612
11030, 1043, 437, 1034, 817
11031, 444, 1033, 825, 1042
11032, 591, 1026, 155, 2425
11033, 1445, 1371, 1744, 2048
11034, 1321, 1664, 1555, 2360
11035, 1319, 1554, 1663, 2361
11036, 713, 1198, 1725, 410
11037, 968, 1017, 873, 2415
11038, 281, 701, 1840, 2445
11039, 229, 664, 946, 877
11040, 1482, 1275, 1481, 2356
11041, 1264, 721, 304, 302
11042, 1027, 741, 332, 2427
11043, 401, 106, 783, 2347
11044, 882, 729, 319, 313
11045, 748, 1277, 2243, 415
11046, 912, 320, 729, 317
11047, 220, 2381, 2368, 2437
11048, 348, 1788, 759, 1424
11049, 1181, 68, 287, 711
11050, 2270, 2015, 757, 349
11051, 58, 2037, 2121, 691
11052, 322, 318, 1288, 730
11053, 1422, 1447, 297, 2441
11054, 750, 748, 2243, 340
11055, 1841, 693, 270, 2446
11056, 2247, 273, 2246, 697
11057, 703, 280, 1774, 702
11058, 2161, 2085, 254, 682
11059, 606, 1514, 172, 605
11060, 1553, 1333, 117, 1753
11061, 1695, 1465, 1464, 2348
11062, 248, 1668, 1596, 679
11063, 1643, 1414, 675, 2175
11064, 2213, 193, 1893, 629
11065, 1040, 916, 1054, 2378
11066, 914, 1041, 1053, 2377
11067, 1635, 572, 1117, 1547
11068, 1813, 1804, 258, 684
11069, 669, 43, 44, 2401
11070, 2198, 1922, 2123, 2339
11071, 1134, 2322, 102, 2337
11072, 2087, 2088, 1976, 1478
11073, 1021, 208, 951, 2366
11074, 2071, 2148, 261, 686
11075, 1869, 2064, 2130, 2417
11076, 692, 694, 267, 1773
11077, 1443, 1995, 2122, 2047
11078, 1261, 1461, 1462, 2373
11079, 31, 2368, 195, 2394
11080, 827, 830, 999, 445
11081, 998, 438, 822, 819
11082, 939, 1019, 889, 2368
11083, 1040, 957, 847, 2378
11084, 1041, 846, 956, 2377
11085, 98, 96, 1654, 1299
11086, 1144, 515, 2231, 1501
11087, 1121, 2229, 565, 2109
11088, 1716, 1508, 1276, 400
11089, 1009, 436, 1043, 2406
11090, 31, 215, 710, 2423
11091, 259, 686, 1633, 1546
11092, 1260, 1455, 1454, 2388
11093, 715, 226, 33, 2408
11094, 2228, 2111, 1080, 502
11095, 783, 2347, 106, 2408
11096, 774, 382, 1698, 2396
11097, 2279, 1086, 1795, 1565
11098, 1029, 985, 337, 2410
11099, 987, 1060, 150, 2382
11100, 33, 208, 2366, 2395
11101, 441, 1071, 828, 2428
11102, 820, 823, 439, 2429
11103, 385, 1136, 100, 2319
11104, 427, 289, 708, 709
11105, 2225, 1333, 117, 1826
11106, 293, 712, 713, 410
11107, 2015, 1425, 2158, 2270
11108, 32, 26, 198, 657
11109, 205, 34, 28, 660
11110, 26, 32, 198, 655
11111, 205, 28, 34, 659
11112, 31, 24, 195, 656
11113, 208, 33, 30, 661
11114, 208, 30, 33, 658
11115, 195, 24, 31, 654
11116, 1462, 1461, 1464, 2440
11117, 1714, 1762, 1173, 2349
11118, 1093, 1094, 2263, 521
11119, 1110, 1502, 532, 2227
11120, 807, 816, 118, 1044
11121, 2284, 1718, 146, 1118
11122, 1458, 1703, 1731, 2359
11123, 107, 794, 786, 402
11124, 112, 797, 793, 412
11125, 2124, 778, 2141, 2426
11126, 430, 815, 120, 811
11127, 1861, 1868, 1806, 2420
11128, 2204, 1529, 2113, 2019
11129, 2226, 1587, 2046, 1972
11130, 698, 766, 1697, 2180
11131, 948, 195, 23, 949
11132, 428, 217, 809, 810
11133, 411, 1198, 713, 410
11134, 1635, 671, 240, 1547
11135, 1479, 2283, 518, 1090
11136, 2162, 250, 679, 2100
11137, 106, 1416, 2046, 2226
11138, 887, 1021, 938, 2366
11139, 715, 69, 1129, 291
11140, 1702, 2216, 2067, 1564
11141, 753, 752, 1661, 342
11142, 202, 638, 889, 1019
11143, 189, 623, 190, 2402
11144, 658, 208, 30, 651
11145, 1102, 1103, 2020, 513
11146, 1564, 1479, 2087, 1478
11147, 318, 78, 1288, 2391
11148, 603, 167, 879, 1066
11149, 587, 586, 153, 1000
11150, 922, 944, 2352, 2431
11151, 1003, 212, 886, 649
11152, 515, 1105, 2231, 1501
11153, 648, 652, 650, 2352
11154, 1767, 1550, 1585, 2391
11155, 750, 748, 324, 2243
11156, 1982, 1641, 1788, 1366
11157, 1550, 1549, 1288, 2391
11158, 1850, 1851, 1895, 2376
11159, 1849, 1883, 2171, 2369
11160, 1116, 1644, 1750, 2017
11161, 400, 2203, 1276, 1932
11162, 662, 664, 663, 2380
11163, 291, 33, 718, 2389
11164, 635, 215, 2394, 2412
11165, 779, 780, 99, 2393
11166, 2263, 1093, 521, 1641
11167, 95, 2325, 96, 2396
11168, 395, 781, 1022, 783
11169, 2277, 274, 2247, 697
11170, 301, 723, 1052, 307
11171, 715, 33, 291, 2408
11172, 1577, 1172, 1579, 2419
11173, 1009, 818, 436, 2406
11174, 198, 634, 632, 2371
11175, 233, 947, 918, 667
11176, 650, 205, 28, 660
11177, 205, 645, 647, 2372
11178, 336, 1029, 742, 737
11179, 736, 738, 334, 1001
11180, 2237, 517, 1479, 1205
11181, 1197, 427, 426, 709
11182, 1016, 333, 738, 1001
11183, 922, 944, 886, 2352
11184, 55, 56, 688, 2397
11185, 44, 43, 672, 2401
11186, 646, 2395, 226, 2416
11187, 2233, 1494, 1641, 1366
11188, 644, 646, 642, 2416
11189, 2205, 2174, 2020, 1530
11190, 1000, 154, 587, 1015
11191, 2223, 1982, 9, 755
11192, 1113, 1115, 534, 2019
11193, 864, 1722, 471, 2209
11194, 2208, 863, 1721, 454
11195, 2225, 2105, 1272, 1826
11196, 238, 1861, 1806, 669
11197, 1764, 2008, 2010, 1392
11198, 1726, 1544, 719, 2442
11199, 633, 630, 635, 2412
11200, 94, 774, 373, 2345
11201, 249, 679, 2086, 2162
11202, 859, 488, 129, 1072
11203, 860, 824, 124, 440
11204, 198, 639, 641, 2358
11205, 774, 94, 773, 2345
11206, 710, 288, 1730, 709
11207, 1625, 1602, 392, 2393
11208, 1316, 1514, 172, 606
11209, 1510, 1717, 1397, 416
11210, 1479, 518, 2283, 1392
11211, 17, 765, 1138, 1720
11212, 2013, 1314, 1661, 2122
11213, 187, 1067, 624, 878
11214, 476, 957, 860, 847
11215, 956, 859, 846, 487
11216, 2227, 1502, 1978, 2116
11217, 817, 436, 818, 2406
11218, 816, 421, 815, 2346
11219, 2227, 1978, 1143, 2099
11220, 786, 401, 787, 2347
11221, 1565, 252, 682, 1639
11222, 312, 726, 1051, 313
11223, 2119, 2097, 1963, 1523
11224, 315, 1559, 1153, 727
11225, 335, 963, 737, 736
11226, 588, 964, 152, 586
11227, 603, 169, 7, 899
11228, 898, 185, 12, 624
11229, 2149, 1985, 2230, 2393
11230, 769, 368, 2129, 768
11231, 214, 223, 222, 2352
11232, 851, 839, 1241, 461
11233, 232, 665, 666, 2363
11234, 640, 636, 638, 2381
11235, 642, 1025, 206, 983
11236, 727, 314, 316, 1268
11237, 850, 464, 1240, 838
11238, 408, 790, 224, 409
11239, 244, 1414, 1199, 675
11240, 922, 2352, 886, 2383
11241, 2231, 1981, 2097, 1144
11242, 868, 1058, 1038, 2343
11243, 2244, 2177, 2024, 2435
11244, 1782, 1420, 1716, 399
11245, 1530, 2020, 1103, 513
11246, 597, 784, 585, 2425
11247, 886, 1003, 649, 2352
11248, 946, 1030, 958, 2380
11249, 193, 2213, 628, 629
11250, 294, 1129, 1632, 715
11251, 1598, 465, 850, 840
11252, 1599, 841, 851, 460
11253, 700, 276, 1745, 699
11254, 1057, 867, 1039, 2342
11255, 1406, 170, 8, 604
11256, 625, 186, 11, 1407
11257, 2213, 1920, 193, 628
11258, 1626, 1450, 1220, 2345
11259, 2176, 1903, 1864, 2419
11260, 982, 1024, 197, 630
11261, 1323, 1718, 581, 2284
11262, 774, 374, 382, 2396
11263, 698, 1697, 65, 862
11264, 512, 1413, 1104, 1642
11265, 2203, 147, 598, 600
11266, 2034, 2035, 237, 668
11267, 2008, 545, 2010, 1098
11268, 31, 654, 215, 2394
11269, 220, 640, 2368, 2381
11270, 779, 102, 101, 2337
11271, 491, 1633, 1076, 1546
11272, 879, 156, 5, 603
11273, 1452, 1228, 1451, 2407
11274, 1298, 235, 668, 1766
11275, 1000, 2341, 944, 2431
11276, 1502, 1143, 532, 2227
11277, 1115, 1529, 534, 2019
11278, 1443, 1661, 1314, 2122
11279, 226, 661, 33, 2395
11280, 195, 31, 656, 2368
11281, 205, 650, 652, 2328
11282, 1066, 603, 167, 899
11283, 700, 1746, 275, 698
11284, 805, 1065, 747, 2427
11285, 898, 187, 1067, 624
11286, 880, 720, 301, 300
11287, 520, 2233, 1494, 1641
11288, 969, 184, 620, 617
11289, 217, 634, 657, 2371
11290, 225, 643, 210, 2416
11291, 771, 2246, 367, 768
11292, 1014, 848, 834, 484
11293, 658, 33, 208, 2366
11294, 1522, 2113, 2099, 1962
11295, 1277, 324, 748, 2243
11296, 1013, 479, 835, 849
11297, 951, 950, 1068, 2395
11298, 958, 877, 946, 2380
11299, 1464, 1544, 1695, 2442
11300, 770, 2206, 370, 767
11301, 1626, 1220, 97, 2345
11302, 1231, 1232, 1233, 2365
11303, 218, 655, 641, 2358
11304, 224, 659, 647, 2372
11305, 2188, 1894, 191, 626
11306, 731, 317, 318, 2444
11307, 618, 179, 619, 965
11308, 1447, 161, 584, 2441
11309, 1567, 1320, 1401, 2433
11310, 1568, 1403, 1322, 2434
11311, 1745, 1430, 764, 2138
11312, 410, 225, 226, 791
11313, 427, 215, 216, 808
11314, 199, 631, 216, 2412
11315, 1205, 1822, 2237, 1106
11316, 1895, 1966, 2154, 2404
11317, 2161, 508, 2085, 1077
11318, 2210, 2249, 1987, 2396
11319, 284, 706, 1611, 1686
11320, 171, 1929, 606, 605
11321, 2008, 1930, 2009, 1685
11322, 31, 710, 283, 2423
11323, 1929, 2008, 2010, 1764
11324, 189, 13, 624, 878
11325, 1641, 1982, 2233, 1366
11326, 862, 698, 1697, 2180
11327, 1731, 1457, 1458, 2359
11328, 944, 1000, 964, 2341
11329, 862, 1697, 766, 2180
11330, 251, 680, 1597, 1344
11331, 1634, 260, 688, 1633
11332, 298, 1726, 1544, 719
11333, 428, 809, 217, 429
11334, 100, 1136, 103, 2336
11335, 2008, 2009, 2283, 1392
11336, 277, 700, 698, 2268
11337, 1446, 2016, 1907, 2169
11338, 1530, 1103, 2119, 1523
11339, 539, 2119, 2020, 1103
11340, 2174, 1701, 1413, 1530
11341, 457, 843, 1680, 1664
11342, 1663, 1678, 468, 842
11343, 1898, 1993, 1991, 2407
11344, 1666, 471, 1774, 451
11345, 454, 1773, 474, 1665
11346, 453, 474, 2152, 1665
11347, 1666, 472, 451, 2151
11348, 215, 427, 426, 808
11349, 226, 411, 410, 791
11350, 1135, 1145, 1171, 2386
11351, 272, 697, 696, 1778
11352, 1115, 1522, 1529, 2113
11353, 102, 1300, 104, 2337
11354, 2078, 563, 2157, 1119
11355, 467, 1663, 842, 844
11356, 843, 845, 1664, 458
11357, 1923, 2124, 2141, 2426
11358, 2237, 2283, 2009, 1479
11359, 1555, 1266, 1321, 2360
11360, 1264, 1554, 1319, 2361
11361, 1363, 1160, 1235, 2401
11362, 1223, 1224, 1222, 2369
11363, 2162, 1118, 2086, 571
11364, 983, 792, 406, 2416
11365, 1536, 668, 45, 1766
11366, 32, 655, 218, 2358
11367, 78, 1585, 1288, 2391
11368, 1201, 1717, 1693, 2398
11369, 219, 637, 204, 2381
11370, 1115, 560, 2113, 2019
11371, 1361, 1227, 1159, 2397
11372, 126, 1071, 828, 441
11373, 121, 439, 820, 823
11374, 500, 2148, 2071, 1076
11375, 2148, 500, 2079, 1078
11376, 1586, 1971, 2225, 2045
11377, 888, 924, 889, 2381
11378, 2120, 2000, 509, 1088
11379, 1602, 1625, 1452, 2393
11380, 2070, 2157, 563, 1117
11381, 1668, 580, 1596, 1126
11382, 1636, 672, 239, 1635
11383, 222, 2352, 2341, 2431
11384, 438, 998, 1047, 819
11385, 445, 999, 827, 1048
11386, 1785, 1473, 1582, 2403
11387, 499, 1639, 1085, 1597
11388, 2174, 2160, 257, 685
11389, 218, 641, 203, 2362
11390, 982, 423, 810, 2412
11391, 2209, 864, 1722, 2259
11392, 863, 2258, 2208, 1721
11393, 520, 1093, 2233, 1641
11394, 1197, 1730, 288, 709
11395, 1088, 509, 2120, 1087
11396, 1801, 95, 2133, 2325
11397, 1706, 1617, 1656, 2370
11398, 1620, 1688, 1363, 2392
11399, 2192, 52, 681, 1426
11400, 1146, 1134, 1172, 2374
11401, 66, 698, 862, 2180
11402, 1644, 47, 677, 2017
11403, 103, 100, 2336, 2393
11404, 588, 151, 1060, 592
11405, 425, 812, 993, 809
11406, 683, 2174, 257, 685
11407, 834, 852, 874, 483
11408, 1410, 240, 673, 1547
11409, 2278, 2017, 677, 2086
11410, 480, 875, 835, 853
11411, 221, 213, 222, 2383
11412, 1463, 1751, 1261, 2439
11413, 1620, 1234, 1573, 2367
11414, 2352, 2383, 922, 2431
11415, 82, 415, 805, 735
11416, 162, 163, 1396, 589
11417, 2064, 1807, 1852, 2397
11418, 386, 102, 1134, 2322
11419, 963, 1001, 945, 2350
11420, 681, 1795, 1426, 1565
11421, 1806, 2063, 1859, 2401
11422, 2231, 1101, 515, 1144
11423, 920, 1009, 1043, 2406
11424, 1577, 1578, 1203, 2418
11425, 1642, 2192, 511, 1426
11426, 1530, 1102, 2020, 513
11427, 1730, 1130, 288, 710
11428, 217, 657, 32, 2371
11429, 659, 224, 34, 2372
11430, 1140, 1149, 1593, 2335
11431, 2207, 762, 355, 765
11432, 952, 830, 999, 2428
11433, 822, 953, 998, 2429
11434, 1581, 1580, 1204, 2422
11435, 149, 784, 585, 597
11436, 222, 2431, 2341, 2441
11437, 631, 635, 630, 2412
11438, 1135, 96, 377, 2325
11439, 94, 1133, 378, 2320
11440, 2097, 1727, 1523, 1144
11441, 637, 219, 2362, 2381
11442, 1362, 1621, 1659, 2404
11443, 2216, 2087, 1975, 1564
11444, 97, 378, 1133, 380
11445, 2063, 2135, 2153, 2392
11446, 2226, 1827, 1270, 2102
11447, 1011, 982, 196, 2412
11448, 1012, 911, 950, 2395
11449, 1012, 207, 983, 2416
11450, 586, 584, 590, 2441
11451, 642, 646, 643, 2416
11452, 1531, 857, 126, 864
11453, 858, 121, 863, 1532
11454, 1282, 753, 1661, 342
11455, 1202, 1694, 1420, 2389
11456, 286, 1693, 1511, 707
11457, 605, 1514, 172, 1793
11458, 507, 2051, 506, 1084
11459, 2052, 1125, 570, 569
11460, 38, 230, 1056, 829
11461, 232, 41, 1059, 821
11462, 401, 105, 1045, 783
11463, 1841, 270, 2144, 2446
11464, 782, 397, 396, 976
11465, 281, 1840, 2145, 2445
11466, 1929, 171, 1874, 605
11467, 1698, 495, 1603, 1081
11468, 562, 2041, 1644, 2017
11469, 1113, 534, 1529, 2019
11470, 1068, 911, 2347, 2395
11471, 291, 69, 1694, 718
11472, 1558, 1355, 309, 724
11473, 775, 95, 1801, 2325
11474, 78, 318, 315, 1132
11475, 910, 1011, 948, 2394
11476, 270, 693, 2144, 2446
11477, 2123, 2140, 775, 2339
11478, 2153, 1956, 2185, 2436
11479, 1895, 1851, 1966, 2376
11480, 1594, 1222, 1589, 2413
11481, 306, 724, 725, 2399
11482, 604, 6, 168, 1312
11483, 1311, 14, 188, 625
11484, 845, 1758, 1664, 458
11485, 1663, 467, 1757, 844
11486, 263, 690, 1667, 1159
11487, 1929, 2223, 171, 606
11488, 327, 1395, 326, 739
11489, 2040, 2174, 683, 1413
11490, 2154, 1955, 1895, 2404
11491, 220, 656, 31, 2368
11492, 281, 2145, 701, 2445
11493, 345, 1423, 346, 758
11494, 351, 758, 352, 2014
11495, 236, 235, 670, 1179
11496, 773, 96, 774, 2396
11497, 640, 637, 636, 2381
11498, 1149, 1150, 1157, 2430
11499, 1131, 310, 74, 2399
11500, 1099, 2233, 1494, 520
11501, 1077, 1565, 1639, 499
11502, 377, 379, 98, 1135
11503, 52, 2192, 683, 1642
11504, 964, 153, 586, 1000
11505, 587, 153, 154, 1000
11506, 362, 1746, 1745, 761
11507, 1668, 248, 1345, 678
11508, 486, 989, 836, 1041
11509, 104, 386, 1134, 394
11510, 990, 1040, 477, 837
11511, 341, 2260, 753, 2013
11512, 1910, 699, 63, 2138
11513, 19, 1834, 2271, 767
11514, 96, 1654, 1299, 2396
11515, 2001, 2121, 490, 1074
11516, 221, 658, 651, 2366
11517, 1409, 1612, 1074, 489
11518, 771, 90, 772, 1778
11519, 229, 662, 919, 946
11520, 334, 738, 333, 1001
11521, 2192, 1100, 511, 1426
11522, 562, 1644, 1116, 2017
11523, 945, 888, 1004, 2362
11524, 1741, 1447, 1422, 2441
11525, 353, 354, 2025, 759
11526, 287, 706, 68, 1686
11527, 334, 963, 736, 1001
11528, 1174, 1761, 1715, 2354
11529, 766, 761, 85, 2268
11530, 2223, 2010, 2233, 1494
11531, 1069, 2346, 910, 2394
11532, 789, 798, 110, 903
11533, 802, 800, 113, 902
11534, 2078, 241, 2066, 672
11535, 91, 92, 772, 861
11536, 87, 88, 766, 862
11537, 1602, 1699, 1122, 576
11538, 2079, 2065, 262, 688
11539, 656, 220, 640, 2368
11540, 316, 1353, 1559, 727
11541, 517, 2237, 1479, 1090
11542, 71, 305, 308, 921
11543, 1073, 490, 2121, 1074
11544, 571, 2162, 1126, 2100
11545, 1022, 396, 781, 395
11546, 649, 652, 648, 2352
11547, 1073, 1074, 1612, 489
11548, 100, 99, 777, 2319
11549, 1111, 1110, 532, 2227
11550, 1931, 341, 752, 2013
11551, 311, 75, 920, 317
11552, 635, 215, 654, 2394
11553, 775, 93, 94, 2320
11554, 2237, 2283, 1479, 1090
11555, 826, 446, 829, 2390
11556, 117, 806, 417, 2423
11557, 1801, 95, 775, 375
11558, 753, 752, 341, 2013
11559, 1063, 116, 802, 414
11560, 1697, 275, 86, 766
11561, 675, 47, 1644, 2041
11562, 777, 101, 102, 2322
11563, 1795, 1100, 2018, 1426
11564, 1288, 78, 318, 322
11565, 303, 1289, 74, 306
11566, 948, 949, 1069, 2394
11567, 211, 653, 887, 2383
11568, 1111, 532, 1143, 2227
11569, 351, 350, 754, 2061
11570, 1506, 345, 344, 754
11571, 346, 347, 760, 1505
11572, 1010, 442, 826, 443
11573, 435, 436, 1009, 818
11574, 1620, 1364, 1646, 2436
11575, 81, 338, 805, 1065
11576, 75, 320, 912, 317
11577, 913, 71, 305, 299
11578, 1139, 1595, 1147, 2414
11579, 226, 646, 661, 2395
11580, 1577, 1146, 1172, 2374
11581, 1994, 2096, 1897, 2438
11582, 1078, 1634, 1633, 491
11583, 713, 226, 715, 411
11584, 597, 149, 784, 785
11585, 1101, 1105, 2231, 515
11586, 1621, 1361, 1687, 2417
11587, 56, 690, 1159, 2397
11588, 222, 648, 2352, 2383
11589, 340, 2243, 750, 2169
11590, 2203, 598, 3, 400
11591, 405, 406, 983, 792
11592, 635, 195, 633, 2394
11593, 2161, 2101, 508, 1085
11594, 2227, 1110, 1502, 2116
11595, 321, 77, 314, 1266
11596, 1264, 304, 73, 302
11597, 55, 1807, 690, 2397
11598, 915, 927, 931, 2384
11599, 1160, 669, 44, 2401
11600, 386, 385, 1574, 393
11601, 2243, 82, 748, 415
11602, 669, 1806, 43, 2401
11603, 866, 1004, 201, 639
11604, 424, 425, 993, 809
11605, 1825, 2199, 2267, 2335
11606, 1582, 1378, 1785, 2435
11607, 208, 653, 651, 2366
11608, 221, 33, 658, 2366
11609, 2175, 1414, 1529, 2019
11610, 810, 808, 216, 2412
11611, 2038, 2037, 266, 691
11612, 226, 411, 791, 794
11613, 808, 426, 215, 811
11614, 1776, 1765, 194, 629
11615, 1064, 1026, 976, 2425
11616, 1688, 1307, 1691, 2421
11617, 2272, 1835, 16, 765
11618, 644, 208, 646, 2395
11619, 279, 280, 1541, 703
11620, 1659, 1449, 1389, 2438
11621, 2091, 2164, 2092, 2430
11622, 2227, 1111, 1110, 558
11623, 791, 792, 225, 2416
11624, 694, 268, 267, 1540
11625, 929, 917, 930, 2385
11626, 1923, 2199, 2124, 2426
11627, 1134, 102, 104, 2337
11628, 1317, 1661, 752, 342
11629, 590, 584, 161, 2441
11630, 1079, 2228, 502, 2080
11631, 649, 2352, 648, 2383
11632, 747, 735, 805, 2427
11633, 1644, 48, 47, 675
11634, 863, 2208, 475, 454
11635, 2209, 471, 864, 450
11636, 2192, 52, 51, 681
11637, 1883, 1848, 1922, 2413
11638, 681, 2018, 2192, 1426
11639, 1003, 865, 212, 652
11640, 1966, 1851, 2004, 2409
11641, 879, 5, 167, 603
11642, 2159, 246, 676, 2175
11643, 47, 48, 1644, 677
11644, 51, 52, 2192, 683
11645, 855, 857, 1679, 469
11646, 1681, 858, 856, 456
11647, 710, 426, 215, 709
11648, 2152, 473, 474, 453
11649, 2229, 2178, 1120, 565
11650, 452, 451, 472, 2151
11651, 426, 427, 215, 709
11652, 385, 100, 777, 2319
11653, 1673, 1522, 1143, 2099
11654, 1119, 1636, 572, 1635
11655, 1145, 1580, 1171, 2386
11656, 759, 348, 1424, 347
11657, 344, 343, 1425, 757
11658, 349, 2015, 757, 350
11659, 7, 167, 603, 899
11660, 898, 12, 187, 624
11661, 411, 713, 226, 410
11662, 1288, 1585, 1550, 2391
11663, 1105, 2231, 541, 1101
11664, 861, 61, 696, 1696
11665, 775, 2320, 776, 2339
11666, 764, 362, 1745, 761
11667, 775, 96, 95, 2325
11668, 504, 2190, 1082, 2210
11669, 1123, 2189, 567, 2211
11670, 975, 419, 803, 418
11671, 814, 910, 119, 816
11672, 911, 796, 108, 787
11673, 1912, 1946, 1840, 2445
11674, 648, 651, 653, 2383
11675, 1911, 1841, 1945, 2446
11676, 67, 283, 1693, 707
11677, 1040, 1054, 957, 2378
11678, 1041, 956, 1053, 2377
11679, 1105, 2125, 2231, 1501
11680, 1572, 1225, 1223, 2409
11681, 1101, 2231, 2097, 1144
11682, 1588, 1230, 1592, 2387
11683, 2237, 543, 1090, 1106
11684, 830, 952, 1072, 2428
11685, 953, 822, 824, 2429
11686, 847, 477, 1040, 837
11687, 486, 836, 846, 1041
11688, 1987, 2134, 372, 2396
11689, 784, 3, 149, 585
11690, 1433, 1299, 1434, 2396
11691, 368, 2246, 2129, 768
11692, 624, 13, 187, 878
11693, 773, 93, 2150, 2345
11694, 8, 168, 1406, 604
11695, 625, 11, 188, 1407
11696, 2150, 93, 1846, 2345
11697, 326, 744, 1509, 325
11698, 312, 1051, 76, 313
11699, 1052, 72, 301, 307
11700, 1834, 370, 2206, 767
11701, 211, 1021, 887, 653
11702, 910, 118, 816, 1044
11703, 264, 691, 1566, 1375
11704, 1376, 1738, 1556, 2420
11705, 1156, 1147, 1595, 2414
11706, 1147, 1155, 1148, 2432
11707, 746, 885, 985, 337
11708, 1165, 1248, 1127, 2445
11709, 1246, 1166, 1128, 2446
11710, 1221, 1220, 1449, 2333
11711, 1627, 1389, 1450, 2438
11712, 1413, 2020, 2174, 1530
11713, 1090, 517, 2237, 1106
11714, 55, 1852, 1807, 2397
11715, 806, 421, 807, 2346
11716, 2217, 2070, 141, 1089
11717, 133, 2071, 2218, 1075
11718, 1806, 1859, 43, 2401
11719, 1546, 1075, 134, 1724
11720, 1464, 1461, 1347, 2440
11721, 1757, 466, 1598, 840
11722, 841, 1758, 459, 1599
11723, 2136, 266, 265, 689
11724, 203, 219, 218, 2362
11725, 2069, 269, 2152, 692
11726, 1197, 288, 289, 709
11727, 675, 676, 246, 2175
11728, 2008, 1764, 1685, 1392
11729, 125, 1072, 830, 952
11730, 122, 953, 822, 824
11731, 880, 301, 72, 300
11732, 319, 76, 882, 313
11733, 26, 198, 657, 634
11734, 24, 195, 656, 640
11735, 646, 208, 30, 661
11736, 659, 205, 28, 647
11737, 655, 198, 26, 641
11738, 24, 195, 635, 654
11739, 453, 861, 61, 1665
11740, 65, 472, 1666, 862
11741, 1024, 197, 632, 980
11742, 2176, 1864, 1899, 2419
11743, 423, 810, 424, 982
11744, 708, 1657, 290, 289
11745, 67, 288, 1130, 710
11746, 2089, 2090, 2163, 2432
11747, 70, 295, 1726, 719
11748, 1797, 1452, 1451, 2407
11749, 1433, 496, 495, 1082
11750, 1726, 1695, 1544, 2442
11751, 741, 1027, 332, 333
11752, 635, 199, 215, 2412
11753, 1123, 576, 1435, 577
11754, 646, 226, 210, 2416
11755, 2233, 1099, 1093, 520
11756, 791, 406, 792, 2416
11757, 2189, 2110, 1122, 566
11758, 176, 175, 1521, 612
11759, 876, 1018, 947, 2363
11760, 746, 742, 337, 2410
11761, 423, 808, 810, 2412
11762, 398, 783, 106, 2408
11763, 591, 154, 155, 1026
11764, 1029, 337, 742, 2410
11765, 1610, 1296, 303, 721
11766, 321, 1609, 1267, 730
11767, 206, 981, 1025, 645
11768, 830, 1072, 441, 2428
11769, 822, 439, 824, 2429
11770, 56, 1159, 1227, 2397
11771, 2112, 1081, 503, 2190
11772, 195, 640, 638, 2368
11773, 585, 591, 597, 2425
11774, 1644, 1643, 675, 2041
11775, 1160, 44, 1235, 2401
11776, 395, 1045, 105, 783
11777, 741, 735, 747, 2427
11778, 1143, 1111, 2227, 2099
11779, 683, 2192, 2040, 1642
11780, 804, 420, 419, 1020
11781, 207, 644, 1012, 950
11782, 1084, 498, 1739, 1735
11783, 174, 173, 1480, 615
11784, 957, 953, 476, 860
11785, 956, 952, 859, 487
11786, 442, 38, 1056, 829
11787, 1059, 41, 435, 821
11788, 942, 720, 1006, 299
11789, 1547, 142, 1089, 1723
11790, 667, 666, 665, 2363
11791, 1027, 2427, 975, 2437
11792, 1089, 141, 142, 1117
11793, 1075, 134, 133, 1076
11794, 1077, 135, 136, 1086
11795, 957, 476, 1040, 847
11796, 956, 846, 1041, 487
11797, 204, 640, 220, 2381
11798, 1122, 575, 1602, 576
11799, 547, 2025, 2263, 1094
11800, 2284, 146, 145, 1118
11801, 1392, 518, 2283, 1098
11802, 196, 948, 1011, 633
11803, 139, 140, 1088, 1089
11804, 1074, 131, 132, 1075
11805, 1060, 987, 997, 2382
11806, 1900, 1980, 1899, 2418
11807, 511, 1104, 2192, 1642
11808, 925, 1027, 975, 2437
11809, 616, 177, 178, 1485
11810, 189, 624, 623, 2402
11811, 735, 805, 338, 747
11812, 282, 702, 2068, 2151
11813, 910, 118, 119, 816
11814, 1099, 546, 2233, 1093
11815, 1979, 1902, 1901, 2422
11816, 1546, 259, 687, 1409
11817, 276, 1745, 1746, 700
11818, 2070, 2000, 242, 673
11819, 352, 353, 2060, 760
11820, 1100, 2192, 2018, 1426
11821, 779, 99, 100, 2393
11822, 73, 309, 1269, 302
11823, 316, 314, 77, 1268
11824, 1063, 812, 116, 414
11825, 2001, 2071, 261, 687
11826, 886, 2352, 649, 2383
11827, 222, 2383, 2352, 2431
11828, 1045, 911, 105, 787
11829, 437, 1043, 436, 817
11830, 1042, 825, 444, 443
11831, 1745, 1430, 361, 764
11832, 2268, 698, 277, 2180
11833, 2041, 1644, 1108, 562
11834, 790, 995, 405, 404
11835, 1060, 592, 150, 2382
11836, 773, 94, 93, 2345
11837, 81, 805, 418, 1065
11838, 1551, 1552, 1289, 2411
11839, 746, 13, 189, 885
11840, 175, 174, 1275, 609
11841, 176, 177, 610, 1274
11842, 2263, 2233, 1093, 1641
11843, 27, 212, 865, 652
11844, 1068, 950, 911, 2395
11845, 2150, 93, 773, 371
11846, 1891, 1868, 1861, 2420
11847, 1581, 1607, 1378, 2435
11848, 1392, 2283, 2008, 1098
11849, 310, 724, 306, 2399
11850, 161, 162, 1447, 584
11851, 201, 202, 636, 888
11852, 2284, 143, 1323, 1116
11853, 1923, 1884, 1935, 2387
11854, 194, 1776, 628, 1535
11855, 777, 102, 386, 2322
11856, 68, 1181, 290, 711
11857, 904, 987, 150, 596
11858, 596, 150, 592, 2382
11859, 64, 1604, 1430, 699
11860, 292, 1583, 712, 293
11861, 812, 994, 1063, 425
11862, 374, 774, 96, 2396
11863, 494, 1603, 495, 1081
11864, 1994, 1897, 1989, 2438
11865, 14, 1260, 331, 745
11866, 595, 158, 6, 1261
11867, 2218, 2001, 490, 1074
11868, 2000, 2217, 509, 1088
11869, 1724, 1409, 1074, 489
11870, 355, 1835, 2207, 765
11871, 5, 156, 904, 596
11872, 2244, 2028, 2177, 2435
11873, 1508, 163, 164, 594
11874, 672, 239, 1638, 1636
11875, 1449, 1220, 1450, 2438
11876, 579, 1749, 1737, 1125
11877, 1900, 2255, 1980, 2418
11878, 1118, 145, 2086, 571
11879, 1565, 1077, 135, 499
11880, 689, 264, 263, 1180
11881, 746, 732, 742, 2410
11882, 808, 216, 427, 810
11883, 777, 2319, 778, 2426
11884, 1171, 1582, 1473, 2403
11885, 1470, 580, 146, 1118
11886, 1979, 2254, 1902, 2422
11887, 1075, 1074, 131, 1724
11888, 132, 2218, 1074, 1075
11889, 1088, 2217, 139, 1089
11890, 572, 142, 1117, 1547
11891, 69, 1129, 294, 715
11892, 1072, 488, 1071, 2428
11893, 440, 824, 823, 2429
11894, 791, 410, 225, 792
11895, 595, 582, 593, 2373
11896, 1654, 1171, 1473, 2403
11897, 580, 1668, 579, 1126
11898, 611, 182, 181, 977
11899, 136, 2085, 508, 1077
11900, 953, 124, 476, 860
11901, 129, 859, 952, 487
11902, 1069, 910, 948, 2394
11903, 133, 500, 2071, 1076
11904, 563, 141, 2070, 1117
11905, 772, 2277, 89, 771
11906, 147, 2203, 2044, 600
11907, 649, 648, 653, 2383
11908, 1609, 322, 1297, 730
11909, 2233, 2263, 1982, 1641
11910, 335, 992, 336, 737
11911, 327, 328, 1448, 734
11912, 1078, 1634, 491, 492
11913, 1530, 1413, 1102, 512
11914, 2010, 2233, 1494, 1099
11915, 491, 1076, 134, 1546
11916, 1265, 1610, 304, 721
11917, 226, 225, 210, 2416
11918, 729, 319, 1005, 883
11919, 2017, 249, 677, 2086
11920, 1078, 500, 2079, 501
11921, 911, 108, 105, 787
11922, 1119, 2078, 563, 564
11923, 199, 216, 215, 2412
11924, 840, 1757, 466, 844
11925, 1758, 845, 841, 459
11926, 427, 216, 215, 709
11927, 1182, 714, 70, 292
11928, 713, 225, 226, 410
11929, 2137, 238, 237, 670
11930, 140, 1088, 1089, 1723
11931, 1642, 52, 2192, 1426
11932, 729, 320, 943, 1005
11933, 1605, 695, 60, 1429
11934, 369, 2129, 2184, 769
11935, 1597, 1085, 499, 498
11936, 1394, 360, 361, 763
11937, 1393, 769, 364, 365
11938, 294, 1198, 293, 713
11939, 508, 2101, 507, 1085
11940, 1414, 535, 1529, 1113
11941, 570, 571, 1126, 2100
11942, 911, 1045, 1068, 2347
11943, 706, 284, 68, 1686
11944, 148, 147, 2044, 600
11945, 1426, 252, 681, 1565
11946, 1681, 856, 1680, 457
11947, 1678, 855, 1679, 468
11948, 1644, 48, 1507, 677
11949, 501, 1079, 502, 2080
11950, 152, 151, 991, 588
11951, 621, 8, 173, 1174
11952, 1833, 2253, 1, 599
11953, 468, 467, 1663, 842
11954, 1664, 457, 843, 458
11955, 2154, 2130, 2064, 2417
11956, 11, 178, 1173, 622
11957, 397, 785, 4, 1064
11958, 975, 1027, 1065, 2427
11959, 572, 1636, 1119, 573
11960, 166, 165, 600, 1504
11961, 785, 597, 4, 1064
11962, 219, 204, 220, 2381
11963, 2178, 564, 1120, 565
11964, 857, 1531, 1679, 469
11965, 456, 1681, 858, 1532
11966, 2128, 763, 356, 2183
11967, 47, 1644, 2041, 2017
11968, 998, 438, 953, 822
11969, 830, 952, 999, 445
11970, 323, 1446, 750, 324
11971, 1637, 260, 688, 1634
11972, 583, 160, 159, 1347
11973, 164, 165, 1276, 598
11974, 423, 1011, 808, 2412
11975, 62, 2179, 473, 861
11976, 1069, 1044, 910, 2346
11977, 513, 1103, 1530, 1523
11978, 575, 1692, 574, 1121
11979, 463, 854, 462, 1211
11980, 2095, 1993, 1898, 2407
11981, 805, 338, 82, 735
11982, 406, 791, 1012, 2416
11983, 369, 2184, 2206, 770
11984, 159, 158, 593, 1461
11985, 772, 92, 2179, 861
11986, 2060, 548, 549, 1091
11987, 1917, 270, 269, 694
11988, 732, 745, 743, 2388
11989, 1718, 1470, 146, 1118
11990, 474, 475, 2208, 454
11991, 450, 2209, 471, 451
11992, 964, 153, 152, 586
11993, 592, 582, 596, 2382
11994, 1582, 1581, 1378, 2435
11995, 628, 1776, 194, 629
11996, 335, 963, 736, 334
11997, 1529, 534, 1522, 1115
11998, 214, 222, 213, 648
11999, 1666, 472, 471, 451
12000, 453, 454, 474, 1665
12001, 85, 766, 2268, 2180
12002, 767, 22, 366, 1137
12003, 1479, 518, 517, 1090
12004, 272, 696, 1696, 1778
12005, 1081, 503, 2190, 504
12006, 567, 2189, 1122, 566
12007, 1151, 310, 1131, 2399
12008, 1734, 496, 1083, 497
12009, 578, 1736, 577, 1124
12010, 773, 95, 96, 2396
12011, 182, 183, 891, 614
12012, 1014, 485, 848, 484
12013, 479, 1013, 478, 849
12014, 716, 1422, 298, 297
12015, 281, 282, 703, 1918
12016, 536, 1750, 143, 1116
12017, 1424, 521, 1094, 522
12018, 2015, 552, 1097, 551
12019, 525, 1425, 526, 1097
12020, 1084, 498, 1735, 497
12021, 456, 858, 455, 1532
12022, 857, 1531, 469, 470
12023, 620, 12, 184, 868
12024, 1062, 798, 111, 795
12025, 1098, 2283, 544, 1090
12026, 243, 244, 1199, 676
12027, 545, 2008, 2283, 1098
12028, 1598, 466, 465, 840
12029, 1575, 379, 380, 378
12030, 1599, 459, 841, 460
12031, 1523, 513, 1103, 514
12032, 179, 7, 619, 867
12033, 613, 181, 180, 890
12034, 533, 1522, 534, 1115
12035, 743, 1454, 331, 330
12036, 1795, 1086, 135, 1565
12037, 136, 2279, 2085, 1086
12038, 982, 1011, 423, 2412
12039, 393, 1574, 386, 394
12040, 866, 201, 25, 639
12041, 952, 830, 125, 445
12042, 953, 438, 122, 822
12043, 808, 423, 422, 1011
12044, 406, 1012, 983, 2416
12045, 98, 374, 1299, 382
12046, 2284, 145, 2278, 2086
12047, 881, 1006, 720, 300
12048, 486, 836, 989, 485
12049, 990, 477, 478, 837
12050, 579, 1737, 578, 1125
12051, 404, 996, 1062, 795
12052, 2135, 1892, 2282, 2421
12053, 733, 1346, 330, 329
12054, 384, 2124, 1810, 778
12055, 310, 306, 74, 2399
12056, 566, 1121, 565, 2109
12057, 1100, 2018, 2279, 1795
12058, 407, 1012, 406, 791
12059, 1003, 886, 944, 2352
12060, 1690, 493, 492, 1079
12061, 216, 217, 708, 428
12062, 1098, 518, 2283, 1090
12063, 1789, 84, 1367, 756
12064, 2111, 503, 1080, 502
12065, 762, 356, 2183, 2207
12066, 678, 250, 1948, 2100
12067, 1947, 2101, 253, 680
12068, 1933, 1883, 1922, 2413
12069, 374, 1299, 382, 2396
12070, 296, 1694, 69, 718
12071, 704, 285, 284, 1421
12072, 938, 951, 1022, 2366
12073, 388, 1983, 1985, 780
12074, 1033, 1048, 723, 307
12075, 409, 225, 224, 712
12076, 555, 1114, 556, 2047
12077, 1450, 1389, 1449, 2438
12078, 374, 373, 774, 382
12079, 1433, 1698, 382, 2396
12080, 599, 2, 166, 1141
12081, 1086, 1100, 2279, 1795
12082, 2154, 1966, 2130, 2417
12083, 256, 255, 685, 1200
12084, 573, 574, 1689, 1120
12085, 10, 755, 1788, 1366
12086, 83, 756, 2270, 1967
12087, 414, 813, 115, 801
12088, 559, 2227, 1111, 2099
12089, 1108, 1643, 1644, 2041
12090, 1072, 125, 129, 952
12091, 953, 122, 124, 824
12092, 2192, 1100, 1104, 511
12093, 1116, 1108, 1644, 562
12094, 1071, 441, 1072, 2428
12095, 439, 823, 824, 2429
12096, 484, 834, 874, 483
12097, 542, 543, 1822, 1106
12098, 922, 1000, 944, 2431
12099, 1823, 557, 1109, 556
12100, 274, 273, 2247, 697
12101, 875, 479, 480, 835
12102, 1104, 2040, 2192, 1642
12103, 219, 203, 204, 637
12104, 225, 209, 210, 643
12105, 199, 200, 216, 631
12106, 522, 1091, 1505, 523
12107, 524, 1506, 525, 1096
12108, 550, 2061, 1096, 551
12109, 1747, 1567, 1401, 2433
12110, 1568, 1748, 1403, 2434
12111, 119, 430, 814, 816
12112, 787, 796, 108, 402
12113, 798, 412, 111, 795
12114, 857, 1531, 470, 864
12115, 858, 863, 455, 1532
12116, 772, 89, 90, 771
12117, 2141, 2124, 383, 778
12118, 370, 1834, 19, 767
12119, 16, 1835, 355, 765
12120, 183, 184, 969, 617
12121, 540, 2231, 2097, 1101
12122, 1726, 298, 70, 719
12123, 886, 212, 211, 649
12124, 460, 851, 1241, 461
12125, 1240, 465, 464, 850
12126, 1494, 519, 1099, 520
12127, 337, 336, 1029, 742
12128, 922, 886, 887, 2383
12129, 1789, 343, 84, 756
12130, 21, 1087, 1763, 1536
12131, 1047, 437, 438, 819
12132, 1048, 827, 445, 444
12133, 363, 1429, 768, 364
12134, 756, 83, 2270, 349
12135, 1788, 755, 10, 348
12136, 1626, 94, 373, 2345
12137, 2057, 554, 1112, 553
12138, 1722, 470, 1531, 864
12139, 1721, 455, 863, 1532
12140, 618, 180, 179, 965
12141, 254, 253, 2161, 682
12142, 357, 358, 764, 2138
12143, 1696, 772, 90, 1778
12144, 1046, 985, 1029, 2410
12145, 2246, 273, 2139, 695
12146, 1323, 581, 143, 2284
12147, 1044, 118, 807, 420
12148, 531, 1502, 532, 1110
12149, 1047, 1034, 726, 312
12150, 925, 975, 939, 2437
12151, 85, 86, 761, 766
12152, 1082, 504, 2210, 505
12153, 2211, 567, 1123, 568
12154, 17, 765, 359, 1138
12155, 541, 542, 2125, 1105
12156, 493, 1627, 494, 1080
12157, 642, 206, 207, 983
12158, 982, 197, 196, 630
12159, 1108, 1644, 536, 1116
12160, 1017, 968, 967, 2415
12161, 1206, 530, 1109, 531
12162, 515, 1101, 514, 1144
12163, 1060, 151, 150, 592
12164, 904, 150, 5, 596
12165, 885, 746, 13, 337
12166, 713, 712, 225, 410
12167, 939, 949, 1019, 2368
12168, 477, 1040, 476, 847
12169, 846, 486, 1041, 487
12170, 557, 2116, 1110, 558
12171, 597, 155, 4, 1064
12172, 427, 708, 216, 709
12173, 252, 251, 682, 1639
12174, 365, 1491, 770, 366
12175, 1087, 1088, 510, 1763
12176, 1501, 515, 1105, 516
12177, 2085, 2018, 254, 681
12178, 1063, 116, 812, 425
12179, 533, 532, 1143, 1111
12180, 390, 779, 100, 2393
12181, 676, 245, 246, 2159
12182, 197, 25, 632, 980
12183, 679, 249, 250, 2162
12184, 548, 2025, 547, 1094
12185, 216, 428, 427, 810
12186, 385, 777, 386, 1574
12187, 981, 206, 27, 645
12188, 2157, 242, 241, 671
12189, 1034, 1043, 726, 311
12190, 862, 766, 87, 2180
12191, 528, 1443, 529, 1107
12192, 1020, 949, 939, 2368
12193, 213, 221, 658, 651
12194, 873, 481, 482, 833
12195, 286, 67, 1693, 707
12196, 1205, 517, 516, 1106
12197, 1490, 360, 762, 359
12198, 457, 1681, 856, 456
12199, 468, 855, 1679, 469
12200, 2277, 89, 92, 772
12201, 650, 214, 223, 660
12202, 356, 357, 763, 2128
12203, 2148, 262, 261, 686
12204, 546, 2233, 545, 1099
12205, 932, 892, 893, 2443
12206, 1021, 951, 938, 2366
12207, 1124, 569, 2220, 568
12208, 506, 2221, 505, 1083
12209, 48, 1644, 1643, 675
12210, 2233, 2010, 545, 1099
12211, 481, 1023, 480, 853
12212, 1028, 483, 852, 482
12213, 524, 523, 1423, 1095
12214, 748, 324, 1277, 325
12215, 126, 130, 127, 857
12216, 121, 128, 123, 858
12217, 1757, 467, 466, 844
12218, 845, 1758, 458, 459
12219, 1495, 528, 527, 1112
12220, 138, 137, 1100, 1086
12221, 339, 340, 750, 2169
12222, 2018, 2192, 51, 681
12223, 144, 143, 2284, 1116
12224, 1095, 549, 2014, 550
12225, 339, 749, 79, 1832
12226, 410, 409, 225, 792
12227, 543, 2237, 1822, 1106
12228, 2243, 748, 82, 340
12229, 863, 455, 1721, 454
12230, 470, 1722, 471, 864
12231, 1021, 211, 29, 653
12232, 700, 277, 278, 2268
12233, 659, 209, 224, 647
12234, 655, 203, 218, 641
12235, 215, 199, 635, 654
12236, 2040, 51, 2192, 683
12237, 220, 204, 656, 640
12238, 646, 210, 226, 661
12239, 657, 217, 200, 634
12240, 142, 140, 1089, 1723
12241, 1042, 1033, 723, 308
12242, 1697, 86, 88, 766
12243, 1433, 382, 1299, 2396
12244, 1763, 1088, 510, 1723
12245, 66, 862, 452, 2180
12246, 558, 2227, 1111, 559
12247, 1742, 329, 740, 328
12248, 9, 1982, 354, 755
12249, 4, 149, 597, 785
12250, 1995, 1107, 554, 555
12251, 369, 368, 2129, 769
12252, 697, 272, 271, 1778
12253, 537, 2192, 1100, 1104
12254, 1920, 20, 193, 628
12255, 146, 581, 1718, 2284
12256, 540, 541, 2231, 1101
12257, 590, 161, 160, 1741
12258, 762, 356, 2207, 355
12259, 2277, 2179, 274, 696
12260, 1000, 922, 1015, 2431
12261, 258, 257, 2160, 685
12262, 1987, 2249, 2134, 2396
12263, 370, 369, 2206, 770
12264, 1921, 191, 15, 627
12265, 1062, 110, 798, 903
12266, 902, 113, 802, 1063
12267, 42, 233, 918, 667
12268, 535, 1644, 1108, 1643
12269, 1893, 193, 19, 629
12270, 247, 248, 1596, 679
12271, 671, 240, 239, 1635
12272, 404, 1062, 111, 795
12273, 798, 111, 110, 1062
12274, 113, 116, 802, 1063
12275, 598, 3, 147, 2203
12276, 1413, 255, 683, 1642
12277, 511, 1100, 1795, 1426
12278, 1116, 562, 2017, 2278
12279, 772, 91, 861, 1696
12280, 441, 828, 830, 2428
12281, 439, 822, 820, 2429
12282, 560, 559, 1115, 2113
12283, 428, 708, 216, 427
12284, 686, 260, 259, 1633
12285, 1072, 441, 125, 830
12286, 824, 822, 122, 439
12287, 540, 2119, 539, 1103
12288, 712, 409, 225, 410
12289, 1102, 1530, 512, 513
12290, 2040, 2192, 538, 1104
12291, 509, 2217, 139, 1088
12292, 2218, 490, 132, 1074
12293, 1724, 1074, 131, 489
12294, 766, 88, 1697, 862
12295, 2175, 246, 675, 2041
12296, 535, 1644, 536, 1108
12297, 561, 2041, 1108, 562
12298, 85, 761, 358, 2268
12299, 127, 126, 857, 864
12300, 128, 121, 863, 858
12301, 2116, 2227, 1110, 558
12302, 628, 21, 194, 1535
12303, 537, 2018, 2279, 1100
12304, 766, 85, 87, 2180
12305, 1529, 535, 534, 1113
12306, 96, 1299, 374, 2396
12307, 1087, 510, 21, 1763
12308, 1778, 771, 90, 363
12309, 511, 512, 1104, 1642
12310, 1430, 1745, 276, 699
12311, 453, 861, 91, 1696
12312, 1086, 135, 137, 1795
12313, 627, 192, 18, 1608
12314, 2284, 145, 144, 2278
12315, 202, 23, 638, 1019
12316, 1, 148, 1833, 599
12317, 864, 127, 126, 2259
12318, 128, 121, 2258, 863
12319, 1075, 131, 134, 1724
12320, 132, 133, 2218, 1075
12321, 141, 139, 2217, 1089
12322, 1709, 296, 297, 717
12323, 541, 2125, 2231, 1105
12324, 553, 552, 1092, 2158
12325, 53, 256, 684, 1563
12326, 520, 521, 1093, 1641
12327, 44, 236, 669, 1160
12328, 2277, 92, 2179, 772
12329, 2279, 138, 537, 1100
12330, 526, 1640, 527, 1092
12331, 1392, 519, 518, 1098
12332, 537, 2192, 2018, 1100
12333, 690, 263, 56, 1159
12334, 747, 1065, 81, 332
12335, 2040, 2174, 257, 683
12336, 1807, 265, 55, 690
12337, 475, 2258, 2208, 863
12338, 2259, 2209, 864, 450
12339, 546, 547, 2263, 1093
12340, 1562, 49, 243, 674
12341, 1648, 461, 839, 462
12342, 1652, 464, 463, 838
12343, 1127, 64, 279, 701
12344, 662, 37, 229, 919
12345, 2223, 9, 171, 606
12346, 910, 119, 422, 814
12347, 911, 108, 796, 407
12348, 1710, 285, 286, 705
12349, 1986, 1988, 773, 371
12350, 60, 268, 693, 1128
12351, 2247, 367, 89, 771
12352, 453, 61, 861, 1696
12353, 772, 90, 91, 1696
12354, 2237, 543, 544, 1090
12355, 137, 1100, 1086, 1795
12356, 1745, 361, 362, 764
12357, 1116, 2284, 144, 2278
12358, 2123, 376, 775, 2140
12359, 1894, 16, 191, 626
12360, 2192, 537, 538, 1104
12361, 775, 1808, 375, 2123
12362, 452, 862, 87, 2180
12363, 1697, 472, 65, 862
12364, 368, 367, 2246, 768
12365, 749, 80, 1142, 323
12366, 80, 753, 1282, 342
12367, 1841, 59, 270, 693
12368, 511, 1100, 137, 1795
12369, 562, 1116, 144, 2278
12370, 680, 251, 53, 1344
12371, 1113, 560, 2019, 561
12372, 100, 393, 1136, 385
12373, 63, 281, 701, 1840
12374, 43, 238, 1806, 669
12375, 2277, 2247, 89, 771
12376, 1945, 1841, 2144, 2446
12377, 1946, 2145, 1840, 2445
12378, 86, 1746, 362, 761
12379, 539, 2020, 538, 1102
12380, 1507, 48, 247, 677
12381, 1626, 97, 94, 2345
12382, 50, 245, 674, 1805
12383, 1804, 54, 258, 684
12384, 1666, 1774, 280, 702
12385, 2034, 237, 46, 668
12386, 1316, 172, 10, 606
12387, 1612, 18, 1073, 489
12388, 15, 490, 2121, 1073
12389, 2283, 2237, 544, 1090
12390, 244, 1643, 1414, 675
12391, 509, 20, 2120, 1087
12392, 1984, 1983, 387, 780
12393, 530, 529, 1790, 1114
12394, 143, 1750, 1323, 1116
12395, 816, 118, 421, 807
12396, 267, 692, 1773, 1665
12397, 269, 62, 2152, 692
12398, 88, 472, 1697, 862
12399, 1100, 2279, 138, 1086
12400, 2260, 753, 79, 341
12401, 1088, 140, 510, 1723
12402, 2263, 2233, 546, 1093
12403, 58, 266, 2037, 691
12404, 605, 172, 2, 1793
12405, 341, 752, 83, 1931
12406, 374, 98, 1299, 96
12407, 248, 49, 1345, 678
12408, 635, 199, 24, 654
12409, 26, 203, 655, 641
12410, 28, 209, 659, 647
12411, 30, 210, 646, 661
12412, 656, 204, 24, 640
12413, 657, 200, 26, 634
12414, 626, 17, 192, 1243
12415, 545, 2283, 544, 1098
12416, 1750, 536, 1644, 1116
12417, 1626, 373, 97, 381
12418, 668, 235, 45, 1766
12419, 702, 282, 66, 2151
12420, 2279, 136, 138, 1086
12421, 691, 57, 264, 1566
12422, 673, 45, 240, 1410
12423, 2065, 55, 262, 688
12424, 1430, 276, 64, 699
12425, 473, 2179, 92, 861
12426, 2066, 241, 43, 672
12427, 1874, 171, 1, 605
12428, 1765, 22, 194, 629
12429, 97, 378, 94, 1133
12430, 2179, 62, 274, 696
12431, 98, 96, 377, 1135
12432, 104, 386, 102, 1134
12433, 100, 393, 103, 1136
12434, 46, 242, 2000, 673
12435, 259, 57, 687, 1409
12436, 273, 59, 2139, 695
12437, 261, 58, 2001, 687
12438, 688, 56, 260, 1637
12439, 102, 391, 1300, 389
12440, 658, 30, 213, 651
12441, 28, 214, 650, 660
12442, 752, 84, 1317, 342
12443, 664, 229, 38, 877
12444, 233, 41, 876, 665
12445, 253, 54, 1947, 680
12446, 672, 239, 44, 1638
12447, 678, 250, 50, 1948
12448, 644, 207, 29, 950
12449, 948, 196, 23, 633
12450, 66, 277, 698, 2180
12451, 1666, 280, 65, 702
12452, 315, 316, 1559, 727
12453, 255, 52, 683, 1642
12454, 310, 1558, 309, 724
12455, 246, 47, 675, 2041
12456, 692, 267, 61, 1665
12457, 699, 278, 63, 2138
12458, 97, 94, 373, 1626
12459, 275, 276, 1746, 700
12460, 391, 102, 1300, 104
12461, 244, 48, 1643, 675
12462, 384, 383, 2124, 778
12463, 271, 60, 695, 1429
12464, 47, 249, 677, 2017
12465, 2018, 51, 254, 681
12466, 864, 127, 2259, 450
12467, 2258, 475, 128, 863
12468, 681, 52, 252, 1426
12469, 110, 37, 789, 903
12470, 800, 42, 113, 902
12471, 696, 61, 272, 1696
12472, 2040, 257, 51, 683
12473, 304, 1610, 303, 721
12474, 1609, 321, 322, 730
12475, 300, 1006, 720, 299
12476, 320, 729, 319, 1005
12477, 1983, 388, 387, 780
12478, 312, 1034, 726, 311
12479, 308, 1033, 723, 307
12480, 376, 775, 375, 2123
12481, 773, 1986, 371, 372
12482, 1697, 65, 275, 698
12483, 2337, 779, 1300, 2132
12484, 2337, 1300, 779, 389
12485, 2436, 1235, 1363, 1364
12486, 2436, 1363, 1235, 2401
12487, 1606, 2075, 1325, 1705
12488, 1325, 2075, 1606, 1828
12489, 2074, 1607, 1324, 1704
12490, 1324, 1607, 2074, 1830
12491, 1268, 727, 434, 1353
12492, 1268, 434, 727, 314
12493, 2397, 2065, 2276, 1637
12494, 2397, 2276, 2065, 1852
12495, 1325, 1820, 1301, 1399
12496, 1301, 1820, 1325, 1818
12497, 1324, 1816, 1303, 1814
12498, 1303, 1816, 1324, 1398
12499, 2296, 919, 946, 1002
12500, 2296, 946, 919, 662
12501, 2293, 918, 947, 667
12502, 2293, 947, 918, 988
12503, 2419, 2245, 2022, 1381
12504, 2419, 2022, 2245, 2176
12505, 2066, 2401, 2275, 1638
12506, 2275, 2401, 2066, 1859
12507, 2345, 1803, 2333, 2320
12508, 2345, 2333, 1803, 1846
12509, 1847, 2333, 1803, 2320
12510, 1847, 1803, 2333, 1846
12511, 2433, 2384, 2300, 2289
12512, 2433, 2300, 2384, 2294
12513, 1572, 2409, 1687, 1305
12514, 1572, 1687, 2409, 2417
12515, 2410, 1018, 909, 2363
12516, 2410, 909, 1018, 1046
12517, 1578, 2075, 1606, 1705
12518, 1606, 2075, 1578, 2029
12519, 302, 1355, 309, 1269
12520, 302, 309, 1355, 724
12521, 2091, 1162, 1161, 1157
12522, 2091, 1161, 1162, 1952
12523, 1285, 1233, 2251, 1286
12524, 1285, 2251, 1233, 2365
12525, 2181, 2251, 1233, 1286
12526, 2181, 1233, 2251, 2365
12527, 2421, 1233, 1573, 1307
12528, 2421, 1573, 1233, 2365
12529, 2434, 2385, 2299, 2295
12530, 2434, 2299, 2385, 2290
12531, 2329, 1570, 1752, 1456
12532, 2329, 1752, 1570, 2311
12533, 2441, 2301, 716, 1422
12534, 2441, 716, 2301, 2341
12535, 2304, 1650, 1269, 302
12536, 2304, 1269, 1650, 1369
12537, 1651, 2305, 1268, 314
12538, 1268, 2305, 1651, 1370
12539, 2186, 1388, 2397, 2276
12540, 2186, 2397, 1388, 1362
12541, 1388, 2397, 1637, 1227
12542, 1637, 2397, 1388, 2276
12543, 2407, 1391, 1692, 1991
12544, 2407, 1692, 1391, 1797
12545, 2137, 1334, 1315, 1927
12546, 1315, 1334, 2137, 1179
12547, 1777, 1894, 1707, 2273
12548, 1777, 1707, 1894, 1243
12549, 2115, 1707, 1894, 2273
12550, 2115, 1894, 1707, 1243
12551, 1163, 2126, 1204, 2254
12552, 1163, 1204, 2126, 1669
12553, 1670, 2255, 1952, 1161
12554, 1952, 2255, 1670, 2127
12555, 2319, 383, 99, 778
12556, 2319, 99, 383, 1802
12557, 1820, 1301, 1780, 1819
12558, 1820, 1780, 1301, 1399
12559, 2401, 2066, 43, 672
12560, 2401, 43, 2066, 1859
12561, 1303, 1816, 1779, 1815
12562, 1303, 1779, 1816, 1398
12563, 1993, 1452, 2393, 2110
12564, 1993, 2393, 1452, 2407
12565, 1949, 1155, 1951, 2089
12566, 1949, 1951, 1155, 1164
12567, 1359, 1805, 1828, 2094
12568, 1828, 1805, 1359, 1562
12569, 2421, 1286, 1233, 1307
12570, 2421, 1233, 1286, 2181
12571, 1890, 2417, 1687, 1365
12572, 2401, 1390, 1638, 1235
12573, 2401, 1638, 1390, 2275
12574, 1828, 1359, 2245, 1606
12575, 1828, 2245, 1359, 2094
12576, 1236, 1906, 1815, 1237
12577, 1236, 1815, 1906, 1813
12578, 2397, 2065, 55, 1852
12579, 2397, 55, 2065, 688
12580, 974, 2405, 986, 905
12581, 986, 2405, 974, 2338
12582, 2420, 1619, 1334, 1891
12583, 2420, 1334, 1619, 1738
12584, 1830, 1607, 1360, 1563
12585, 1830, 1804, 1360, 2093
12586, 1360, 1804, 1830, 1563
12587, 1957, 1365, 1889, 1890
12588, 1957, 1889, 1365, 1386
12589, 2413, 1351, 1711, 1933
12590, 2413, 1711, 1351, 1589
12591, 2433, 1542, 1598, 1747
12592, 2433, 1598, 1542, 2294
12593, 2434, 1543, 1599, 2295
12594, 2434, 1599, 1543, 1748
12595, 1570, 2370, 1767, 1706
12596, 1767, 2370, 1570, 2311
12597, 1798, 2370, 1459, 1656
12598, 1459, 2370, 1798, 40
12599, 1608, 2039, 2038, 1921
12600, 1608, 2038, 2039, 1658
12601, 2276, 2080, 1634, 2065
12602, 1634, 2080, 2276, 1388
12603, 1634, 1637, 2276, 2065
12604, 2276, 1637, 1634, 1388
12605, 1780, 1820, 1512, 1399
12606, 1512, 1820, 1780, 1821
12607, 1158, 1954, 2430, 1157
12608, 2430, 1954, 1158, 2261
12609, 1820, 1512, 1670, 1836
12610, 1820, 1670, 1512, 1399
12611, 1816, 1513, 1669, 1398
12612, 1669, 1513, 1816, 1838
12613, 1038, 2385, 2343, 2290
12614, 1816, 1779, 1513, 1398
12615, 1513, 1779, 1816, 1817
12616, 2322, 384, 101, 1800
12617, 2322, 101, 384, 778
12618, 2370, 1459, 1456, 2329
12619, 2370, 1456, 1459, 1656
12620, 2363, 232, 906, 2340
12621, 2384, 1039, 2342, 2289
12622, 1239, 1812, 1199, 1905
12623, 1199, 1812, 1239, 1238
12624, 40, 1458, 1460, 1459
12625, 1460, 1458, 40, 231
12626, 2363, 232, 40, 666
12627, 40, 232, 2363, 2287
12628, 40, 231, 2363, 666
12629, 2363, 231, 40, 2287
12630, 609, 2312, 1521, 612
12631, 609, 1521, 2312, 2356
12632, 693, 2446, 1605, 1128
12633, 2445, 701, 1604, 1127
12634, 2402, 961, 907, 878
12635, 2402, 907, 961, 2323
12636, 2398, 2346, 804, 31
12637, 2398, 804, 2346, 806
12638, 446, 1733, 1616, 1190
12639, 446, 1616, 1733, 2424
12640, 448, 1558, 1355, 1683
12641, 448, 1355, 1558, 724
12642, 2290, 1714, 1487, 2349
12643, 1487, 1714, 2290, 2434
12644, 1487, 2299, 2290, 2349
12645, 2290, 2299, 1487, 2434
12646, 1638, 2275, 2178, 1390
12647, 2178, 2275, 1638, 2066
12648, 2354, 1567, 2330, 1715
12649, 2354, 2330, 1567, 2289
12650, 2084, 1432, 1286, 1959
12651, 2084, 1286, 1432, 1628
12652, 2145, 1165, 1262, 1294
12653, 2145, 1262, 1165, 2445
12654, 1166, 2144, 1263, 1292
12655, 1166, 1263, 2144, 2446
12656, 2363, 231, 2293, 666
12657, 2363, 2293, 231, 2359
12658, 1986, 2396, 372, 773
12659, 372, 2396, 1986, 1987
12660, 1595, 2413, 1594, 1589
12661, 1594, 2413, 1595, 2339
12662, 2381, 1001, 2362, 924
12663, 2381, 2362, 1001, 2350
12664, 1360, 1947, 1377, 2093
12665, 1360, 1377, 1947, 1344
12666, 2424, 35, 2338, 2327
12667, 2424, 2338, 35, 446
12668, 2434, 1714, 2331, 1568
12669, 2434, 2331, 1714, 2290
12670, 2382, 991, 935, 1060
12671, 2382, 935, 991, 2301
12672, 1535, 2036, 1776, 1920
12673, 1535, 1776, 2036, 1328
12674, 2109, 2407, 1452, 1692
12675, 1452, 2407, 2109, 1993
12676, 1359, 1948, 1380, 1345
12677, 1380, 1948, 1359, 2094
12678, 2380, 2382, 908, 2288
12679, 908, 2382, 2380, 997
12680, 2421, 1965, 2365, 2282
12681, 2421, 2365, 1965, 2367
12682, 612, 2312, 2355, 610
12683, 2355, 2312, 612, 1521
12684, 2355, 1274, 612, 610
12685, 612, 1274, 2355, 1521
12686, 1957, 1743, 2155, 1386
12687, 1957, 2155, 1743, 2252
12688, 1910, 2445, 701, 1604
12689, 701, 2445, 1910, 1840
12690, 2446, 1909, 693, 1605
12691, 2446, 693, 1909, 1841
12692, 2396, 2133, 95, 2325
12693, 2396, 95, 2133, 2134
12694, 2267, 2430, 2261, 2092
12695, 2261, 2430, 2267, 2335
12696, 1921, 1291, 627, 1608
12697, 627, 1291, 1921, 2188
12698, 992, 2410, 933, 1029
12699, 933, 2410, 992, 2297
12700, 2399, 1558, 310, 724
12701, 2399, 310, 1558, 1151
12702, 2260, 79, 80, 1875
12703, 80, 79, 2260, 753
12704, 80, 1282, 2260, 1875
12705, 2260, 1282, 80, 753
12706, 2446, 1310, 1630, 1246
12707, 2446, 1630, 1310, 1945
12708, 1309, 2445, 1629, 1248
12709, 1629, 2445, 1309, 1946
12710, 2306, 2379, 234, 2293
12711, 2306, 234, 2379, 39
12712, 666, 234, 2379, 2293
12713, 666, 2379, 234, 39
12714, 1939, 1337, 1259, 1338
12715, 1259, 1337, 1939, 1996
12716, 665, 906, 2363, 232
12717, 665, 2363, 906, 876
12718, 1257, 2117, 1878, 2056
12719, 1257, 1878, 2117, 1342
12720, 1521, 609, 175, 1275
12721, 175, 609, 1521, 612
12722, 227, 2380, 2296, 663
12723, 2296, 2380, 227, 2348
12724, 1429, 1909, 695, 2139
12725, 1429, 695, 1909, 1605
12726, 1028, 833, 2326, 873
12727, 2326, 833, 1028, 852
12728, 2326, 2415, 1028, 873
12729, 1028, 2415, 2326, 852
12730, 305, 2364, 2400, 306
12731, 2400, 2364, 305, 2324
12732, 2391, 1132, 78, 1585
12733, 2391, 78, 1132, 318
12734, 2320, 378, 2339, 380
12735, 2320, 2339, 378, 776
12736, 1575, 2339, 378, 380
12737, 1575, 378, 2339, 776
12738, 2393, 2189, 779, 1985
12739, 2393, 779, 2189, 1699
12740, 632, 869, 2371, 980
12741, 2371, 869, 632, 198
12742, 2334, 1420, 1716, 1576
12743, 2334, 1716, 1420, 399
12744, 871, 645, 2372, 981
12745, 2372, 645, 871, 205
12746, 2393, 388, 99, 2149
12747, 2393, 99, 388, 780
12748, 2341, 583, 2441, 590
12749, 2341, 2441, 583, 2301
12750, 1347, 583, 2441, 2301
12751, 2433, 1598, 1757, 1401
12752, 2433, 1757, 1598, 2294
12753, 2434, 1599, 1758, 2295
12754, 2434, 1758, 1599, 1403
12755, 2364, 1569, 1552, 1768
12756, 2364, 1552, 1569, 2310
12757, 2035, 670, 237, 668
12758, 237, 670, 2035, 2137
12759, 1967, 752, 1367, 1317
12760, 1967, 1367, 752, 83
12761, 84, 1367, 752, 1317
12762, 84, 752, 1367, 83
12763, 2406, 431, 2285, 821
12764, 2406, 2285, 431, 2308
12765, 1396, 2441, 589, 2318
12766, 1396, 589, 2441, 584
12767, 601, 589, 2441, 2318
12768, 601, 2441, 589, 584
12769, 1314, 1875, 1290, 1919
12770, 1290, 1875, 1314, 1282
12771, 745, 1752, 2388, 190
12772, 745, 2388, 1752, 1260
12773, 992, 2443, 2350, 932
12774, 2350, 2443, 992, 2297
12775, 185, 2349, 608, 186
12776, 608, 2349, 185, 2343
12777, 821, 2370, 40, 431
12778, 40, 2370, 821, 2340
12779, 1527, 426, 2423, 1730
12780, 2423, 426, 1527, 120
12781, 2037, 1612, 691, 1566
12782, 691, 1612, 2037, 2121
12783, 795, 995, 2372, 790
12784, 795, 2372, 995, 996
12785, 631, 217, 810, 634
12786, 631, 810, 217, 216
12787, 2431, 586, 2441, 587
12788, 2431, 2441, 586, 2341
12789, 672, 1635, 2078, 671
12790, 2078, 1635, 672, 1636
12791, 2424, 1768, 1212, 1677
12792, 2424, 1212, 1768, 2364
12793, 1878, 1257, 408, 1256
12794, 408, 1257, 1878, 2056
12795, 224, 643, 792, 647
12796, 792, 643, 224, 225
12797, 2274, 1545, 1537, 1914
12798, 2274, 1537, 1545, 1719
12799, 1736, 569, 578, 1737
12800, 578, 569, 1736, 1124
12801, 2189, 2393, 2110, 1985
12802, 2110, 2393, 2189, 1602
12803, 1604, 2128, 1671, 1394
12804, 1671, 2128, 1604, 1910
12805, 1633, 688, 2079, 686
12806, 1633, 2079, 688, 1634
12807, 2319, 385, 2426, 777
12808, 2319, 2426, 385, 393
12809, 1574, 2426, 385, 777
12810, 1574, 385, 2426, 393
12811, 1742, 734, 2350, 1448
12812, 2350, 734, 1742, 740
12813, 1583, 2056, 408, 409
12814, 1583, 408, 2056, 1257
12815, 2382, 588, 2440, 2301
12816, 2382, 2440, 588, 592
12817, 2047, 1206, 556, 1823
12818, 2047, 556, 1206, 1790
12819, 2259, 1531, 2002, 126
12820, 2259, 2002, 1531, 1722
12821, 2258, 1532, 2003, 1721
12822, 2003, 1532, 2258, 121
12823, 1523, 2205, 1530, 1326
12824, 1523, 1530, 2205, 2119
12825, 2320, 376, 93, 1803
12826, 2320, 93, 376, 775
12827, 2128, 361, 1394, 1430
12828, 2128, 1394, 361, 763
12829, 1059, 818, 2406, 821
12830, 2406, 818, 1059, 1009
12831, 829, 1010, 442, 826
12832, 442, 1010, 829, 1056
12833, 2441, 1709, 297, 717
12834, 2441, 297, 1709, 1447
12835, 2413, 1224, 1222, 1589
12836, 2413, 1222, 1224, 2369
12837, 2443, 870, 1061, 2358
12838, 2443, 1061, 870, 893
12839, 2393, 390, 1699, 392
12840, 2393, 1699, 390, 779
12841, 391, 1699, 390, 392
12842, 743, 2410, 733, 742
12843, 743, 733, 2410, 2297
12844, 737, 733, 2410, 742
12845, 737, 2410, 733, 2297
12846, 1932, 1504, 2197, 2044
12847, 2197, 1504, 1932, 1468
12848, 410, 1583, 2103, 1725
12849, 410, 2103, 1583, 409
12850, 311, 2406, 317, 920
12851, 317, 2406, 311, 726
12852, 2322, 394, 1574, 1140
12853, 1723, 2070, 1089, 1547
12854, 1723, 1089, 2070, 2217
12855, 1967, 1495, 1640, 2057
12856, 1967, 1640, 1495, 1367
12857, 2439, 6, 1312, 1751
12858, 2439, 1312, 6, 157
12859, 1823, 1502, 1109, 2116
12860, 1823, 1109, 1502, 1206
12861, 428, 711, 1214, 429
12862, 1214, 711, 428, 708
12863, 1214, 1657, 428, 429
12864, 428, 1657, 1214, 708
12865, 1685, 2087, 1479, 1478
12866, 1685, 1479, 2087, 2009
12867, 540, 1523, 2119, 1103
12868, 2119, 1523, 540, 2097
12869, 2410, 743, 732, 742
12870, 2410, 732, 743, 2388
12871, 573, 2178, 1689, 1636
12872, 1689, 2178, 573, 1120
12873, 96, 1654, 1135, 98
12874, 96, 1135, 1654, 2325
12875, 2129, 364, 1393, 769
12876, 1393, 364, 2129, 1429
12877, 492, 2080, 1690, 1079
12878, 1690, 2080, 492, 1634
12879, 838, 1211, 463, 1652
12880, 838, 463, 1211, 854
12881, 839, 1211, 462, 854
12882, 462, 1211, 839, 1648
12883, 2373, 158, 593, 595
12884, 2373, 593, 158, 1461
12885, 1741, 583, 2441, 1347
12886, 1741, 2441, 583, 590
12887, 1138, 762, 765, 359
12888, 1138, 765, 762, 2207
12889, 2190, 774, 2396, 773
12890, 2190, 2396, 774, 1698
12891, 2388, 331, 743, 1454
12892, 2388, 743, 331, 745
12893, 409, 714, 1216, 712
12894, 1216, 714, 409, 408
12895, 1199, 675, 2175, 676
12896, 2175, 675, 1199, 1414
12897, 332, 2427, 1065, 1027
12898, 1065, 2427, 332, 747
12899, 155, 2425, 1064, 597
12900, 1064, 2425, 155, 1026
12901, 685, 1413, 255, 683
12902, 255, 1413, 685, 1200
12903, 211, 2383, 886, 649
12904, 886, 2383, 211, 887
12905, 2411, 2364, 1289, 306
12906, 2411, 1289, 2364, 1584
12907, 74, 1289, 2364, 306
12908, 74, 2364, 1289, 1584
12909, 74, 2399, 2364, 1131
12910, 2364, 2399, 74, 306
12911, 2014, 1505, 758, 2060
12912, 2014, 758, 1505, 1423
12913, 733, 1742, 2297, 1346
12914, 2297, 1742, 733, 740
12915, 2025, 1505, 759, 1424
12916, 759, 1505, 2025, 2060
12917, 1640, 2270, 1425, 1789
12918, 1425, 2270, 1640, 2158
12919, 1574, 386, 2322, 777
12920, 1574, 2322, 386, 394
12921, 390, 389, 1699, 391
12922, 390, 1699, 389, 779
12923, 1699, 389, 1435, 391
12924, 1699, 1435, 389, 779
12925, 1435, 389, 1300, 391
12926, 1435, 1300, 389, 779
12927, 2396, 372, 95, 2134
12928, 2396, 95, 372, 773
12929, 379, 776, 378, 1575
12930, 378, 776, 379, 377
12931, 2393, 390, 103, 100
12932, 2393, 392, 103, 390
12933, 2393, 103, 392, 1625
12934, 1626, 1603, 373, 381
12935, 1603, 373, 1698, 774
12936, 1603, 1698, 373, 381
12937, 1698, 373, 382, 774
12938, 1698, 382, 373, 381
12939, 373, 2345, 1603, 1626
12940, 1603, 2345, 373, 774
12941, 1890, 2417, 1305, 1687
12942, 1890, 1305, 2417, 2130
12943, 2409, 1305, 2417, 1687
12944, 2409, 2417, 1305, 2130
12945, 1360, 1830, 2435, 1607
12946, 2435, 1830, 1360, 2093
12947, 1038, 2385, 1032, 2343
12948, 1038, 1032, 2385, 929
12949, 2384, 1039, 1031, 2342
12950, 1031, 1039, 2384, 927
