*Heading
Prometheus structural package seam fixture
*NODE
1, 0.0, 0.0, 0.0
2, 1.0, 0.0, 0.0
3, 1.0, 0.1, 0.0
4, 0.0, 0.1, 0.0
5, 0.0, 0.0, 0.1
6, 1.0, 0.0, 0.1
7, 1.0, 0.1, 0.1
8, 0.0, 0.1, 0.1
*ELEMENT, TYPE=CPS3, ELSET=Surface1
101, 1, 8, 4
102, 1, 5, 8
*ELEMENT, TYPE=CPS3, ELSET=Surface2
103, 2, 3, 7
104, 6, 2, 7
*ELEMENT, TYPE=CPS3, ELSET=Surface3
105, 1, 3, 2
106, 1, 4, 3
107, 3, 4, 7
108, 4, 8, 7
109, 8, 5, 7
110, 1, 6, 5
111, 5, 6, 7
112, 1, 2, 6
*ELEMENT, TYPE=C3D4, ELSET=Volume1
1, 1, 2, 3, 7
2, 1, 3, 4, 7
3, 1, 4, 8, 7
4, 1, 8, 5, 7
5, 1, 5, 6, 7
6, 1, 6, 2, 7
*ELSET, ELSET=FIXED
101, 102
*ELSET, ELSET=LOADED
103, 104
*ELSET, ELSET=SIDES
105, 106, 107, 108, 109, 110, 111, 112
*ELSET, ELSET=BAR
1, 2, 3, 4, 5, 6
